kk                                      
   1.00000000000000     
     0.0000000000000000   10.9373336906932952   10.9373336906932952
    10.9373336906932952    0.0000000000000000   10.9373336906932952
    10.9373336906932952   10.9373336906932952    0.0000000000000000
   Si
   128
Direct
  0.0072075958772402  0.9981216937260413  0.9895489359714418
  0.2544027921816436  0.9929561807773979  0.0000675108951000
  0.5029037454412020  0.0055660143577256  0.9976467383373802
  0.7574984832079252  0.9999549728795998  0.0007015870900702
  0.0076827093095844  0.2548724167502030  0.9990693370397494
  0.2506007768859746  0.2370603812870087  0.0093012610540129
  0.5111029606646795  0.2428624527441485  0.9954040756374027
  0.7506293931701506  0.2438465062904029  0.0056042678755119
  0.9867111910821791  0.5057373404990102  0.0127354067027312
  0.2469831193495438  0.5034348369000412  0.0027871409959346
  0.5059291777739787  0.5036610098149481  0.9979352872479197
  0.7537497026143427  0.4975586029198311  0.9976248392386609
  0.9994188445849872  0.7485866434490092  0.0094806107065608
  0.2537680933428135  0.7488520180376881  0.9962162028343826
  0.4986825741946461  0.7492647944490471  0.0000171354836382
  0.7390704140596185  0.7486165315840765  0.0095179207031606
  0.0034819161274484  0.9909402100839557  0.2558834296497565
  0.2485826515175233  0.9990843154386724  0.2534229666480314
  0.5086156805710758  0.9953593716978659  0.2439347714817970
  0.7514150405651776  0.9986377912604496  0.2396605518100046
  0.9987312342489858  0.2612690935044171  0.2471650600803841
  0.2384910041225012  0.2525419511283360  0.2637347812297861
  0.4945948141402923  0.2543122917259808  0.2441588475809979
  0.7350527422417983  0.2364361300206212  0.2695156250147903
  0.9882055481110967  0.5004678525608739  0.2575899840535030
  0.2545971211024707  0.4966214176354526  0.2477279997192454
  0.4974343582586940  0.5110399371843570  0.2452285425422076
  0.7524639770056254  0.4910161628515297  0.2457789565271327
  0.0017996937788283  0.7400769359317962  0.2487760639143488
  0.2603959681408625  0.7459065847071571  0.2435034650679597
  0.5104210191361389  0.7465069440705037  0.2426223544045953
  0.7457929328091879  0.7549339580545862  0.2427352967297765
  0.9888263018579906  0.0128530952025230  0.5072765540340924
  0.2436651572451183  0.0084780910248767  0.5051374148246808
  0.4879801626720806  0.0100114180028186  0.4945259990881894
  0.7464859459431139  0.0065119701656116  0.4958212252760674
  0.0070250383310224  0.2459182095059447  0.4969488744760753
  0.2390069040197531  0.2561428415340075  0.4955153719915089
  0.4997701242777026  0.2584185826176650  0.5031253944209766
  0.7485953812251296  0.2533932859235506  0.4886576892739214
  0.9975174317408531  0.5004966151124535  0.4887101328247709
  0.2711716479744553  0.4928841351594428  0.5026405310355955
  0.4983008023960522  0.4996198472060271  0.5030271110910789
  0.7649695007549440  0.4981903525311324  0.4996498283980984
  0.9970403482718311  0.7535437393547113  0.4930174283282795
  0.2502376160705708  0.7549399765275169  0.4941019205139483
  0.4941045921203369  0.7557189658773069  0.5122221985731628
  0.7523756770857943  0.7508240930100811  0.4968384480682033
  0.9972246833693319  0.0025923984551639  0.7531708581111332
  0.2588666760182505  0.9927065623885838  0.7571856476362200
  0.5013601937133529  0.9960938009497937  0.7479921798691436
  0.7518943970518848  0.9807673018308236  0.7624668796584118
  0.0164190492539760  0.2448051860278824  0.7531751899404426
  0.2558709790226175  0.2422550661922926  0.7535009278974982
  0.5029622592854821  0.2525835822762730  0.7528027678060099
  0.7485649432275707  0.2551558621375136  0.7388091750048744
  0.0081330202335366  0.4916357485340654  0.7471050874082366
  0.2384030911837129  0.4922026867942009  0.7600803978372923
  0.4947656756841212  0.5100429893800396  0.7368309698857658
  0.7465094736813640  0.5079762193048438  0.7534116426991631
  0.0051619807274932  0.7515001644630885  0.7399996742871977
  0.2469510560762131  0.7548290831771212  0.7544959811090663
  0.5081780383351173  0.7399146530434209  0.7498549404991053
  0.7418700755481495  0.7535055677957345  0.7514618716775558
  0.0586142333069404  0.0552151072990057  0.0662860729590307
  0.3185757391560031  0.0566100486904944  0.0607907573799196
  0.5493345861270384  0.0677429019163256  0.0654901808769139
  0.8115892631009558  0.0642703614187639  0.0600175771491038
  0.0688445424911279  0.3191006808280292  0.0615286746214920
  0.2996533004867743  0.3102310923508895  0.0668956880461522
  0.5502025974726052  0.3195765425378383  0.0658217412225923
  0.8181633227042369  0.3090798283786427  0.0534552628112834
  0.0555083169846071  0.5570917787214213  0.0712638831554457
  0.3020598750799763  0.5744701610895646  0.0681277397288795
  0.5725599574932190  0.5633286850878108  0.0623686404908881
  0.8117182908218936  0.5725204571946136  0.0559368793616883
  0.0556152933478060  0.8177794566938204  0.0656023943613064
  0.3075575890339195  0.8157399541701764  0.0685021113426387
  0.5571573174987634  0.8230987901275242  0.0633582514698290
  0.8216975795991175  0.8112451510111072  0.0558790148616737
  0.0679616160715071  0.0625319198210050  0.3079935205593074
  0.3200625251231131  0.0601912916065217  0.3035157650442173
  0.5689894848003405  0.0601277048891049  0.3135357930795450
  0.8174969224295126  0.0685464440079073  0.3166075853809218
  0.0655386291643794  0.3154591990256108  0.3215619959532177
  0.3074486340398579  0.3136192972163840  0.3133233397159216
  0.5534352484732565  0.3104659681469926  0.3245954105795832
  0.8152988176701612  0.3168061888645681  0.3013560064603880
  0.0535035311474132  0.5686843471818079  0.3032056280424058
  0.3200602529659875  0.5659543575339114  0.3024840577876375
  0.5691630857679542  0.5536626249234047  0.3087941315965281
  0.8003631143094196  0.5739783044783877  0.3024496804616490
  0.0613572668941131  0.8079955013595281  0.3104053179959294
  0.3123864317979752  0.8205022135642892  0.3141968261750776
  0.5667092656260593  0.8167340242355507  0.3023340856195560
  0.8197717969013141  0.8090314257466886  0.3001825570609071
  0.0608225136011811  0.0677842590378646  0.5669049061155960
  0.3129778351096775  0.0596033381707528  0.5711131259274609
  0.5660685580564504  0.0503764396941193  0.5657119987871440
  0.8085840393023958  0.0645316293723610  0.5682807745375342
  0.0580208978903229  0.3077921741730947  0.5611998267132776
  0.3083404278548727  0.3195059324291378  0.5639510881564931
  0.5694442731914435  0.2998242300033738  0.5717553043898675
  0.8148496073932137  0.3214222931381272  0.5486369383267302
  0.0710201252354778  0.5724917544756565  0.5568474100149388
  0.3072586247612819  0.5606981683422774  0.5785886839824954
  0.5584583869530348  0.5635372547265689  0.5649688348994886
  0.8040206547293138  0.5628184261000655  0.5709783777575126
  0.0527245085190060  0.8224095477782001  0.5603014005402684
  0.3235486691238165  0.8091364486443808  0.5579311164263885
  0.5624116305533562  0.8034825423310821  0.5721760177236703
  0.8165850023211405  0.8058338595001260  0.5663921251382007
  0.0672923858248069  0.0562149915014132  0.8067355166017336
  0.3292394555533136  0.0564197980025938  0.8094722801797047
  0.5738590501275951  0.0659233976356219  0.8065516807366748
  0.8191062440455994  0.0547207330047783  0.8100368311563528
  0.0655166655946715  0.3180112885426425  0.8056794870145012
  0.3117204054708935  0.3030080867778508  0.8171564997060727
  0.5672406992222676  0.3237034944285995  0.8034739200627783
  0.8188822218785674  0.3039961921114340  0.8162184763204792
  0.0570996457697248  0.5704476830494016  0.8132141035888267
  0.3113337132112264  0.5516782419166901  0.8128623961211900
  0.5646692191760110  0.5608173867348114  0.8133015469168967
  0.8128202428576330  0.5678035877907490  0.8048095340332608
  0.0569469861877892  0.8127534623425987  0.8176803883885384
  0.3035575997874602  0.8157732007393932  0.8149018179045484
  0.5573791502184662  0.8078657509884550  0.8199750150536502
  0.8110500246689725  0.8043752447109114  0.8152567000747055
 
  0.00000000E+00  0.00000000E+00  0.00000000E+00
  0.00000000E+00  0.00000000E+00  0.00000000E+00
  0.00000000E+00  0.00000000E+00  0.00000000E+00
  0.00000000E+00  0.00000000E+00  0.00000000E+00
  0.00000000E+00  0.00000000E+00  0.00000000E+00
  0.00000000E+00  0.00000000E+00  0.00000000E+00
  0.00000000E+00  0.00000000E+00  0.00000000E+00
  0.00000000E+00  0.00000000E+00  0.00000000E+00
  0.00000000E+00  0.00000000E+00  0.00000000E+00
  0.00000000E+00  0.00000000E+00  0.00000000E+00
  0.00000000E+00  0.00000000E+00  0.00000000E+00
  0.00000000E+00  0.00000000E+00  0.00000000E+00
  0.00000000E+00  0.00000000E+00  0.00000000E+00
  0.00000000E+00  0.00000000E+00  0.00000000E+00
  0.00000000E+00  0.00000000E+00  0.00000000E+00
  0.00000000E+00  0.00000000E+00  0.00000000E+00
  0.00000000E+00  0.00000000E+00  0.00000000E+00
  0.00000000E+00  0.00000000E+00  0.00000000E+00
  0.00000000E+00  0.00000000E+00  0.00000000E+00
  0.00000000E+00  0.00000000E+00  0.00000000E+00
  0.00000000E+00  0.00000000E+00  0.00000000E+00
  0.00000000E+00  0.00000000E+00  0.00000000E+00
  0.00000000E+00  0.00000000E+00  0.00000000E+00
  0.00000000E+00  0.00000000E+00  0.00000000E+00
  0.00000000E+00  0.00000000E+00  0.00000000E+00
  0.00000000E+00  0.00000000E+00  0.00000000E+00
  0.00000000E+00  0.00000000E+00  0.00000000E+00
  0.00000000E+00  0.00000000E+00  0.00000000E+00
  0.00000000E+00  0.00000000E+00  0.00000000E+00
  0.00000000E+00  0.00000000E+00  0.00000000E+00
  0.00000000E+00  0.00000000E+00  0.00000000E+00
  0.00000000E+00  0.00000000E+00  0.00000000E+00
  0.00000000E+00  0.00000000E+00  0.00000000E+00
  0.00000000E+00  0.00000000E+00  0.00000000E+00
  0.00000000E+00  0.00000000E+00  0.00000000E+00
  0.00000000E+00  0.00000000E+00  0.00000000E+00
  0.00000000E+00  0.00000000E+00  0.00000000E+00
  0.00000000E+00  0.00000000E+00  0.00000000E+00
  0.00000000E+00  0.00000000E+00  0.00000000E+00
  0.00000000E+00  0.00000000E+00  0.00000000E+00
  0.00000000E+00  0.00000000E+00  0.00000000E+00
  0.00000000E+00  0.00000000E+00  0.00000000E+00
  0.00000000E+00  0.00000000E+00  0.00000000E+00
  0.00000000E+00  0.00000000E+00  0.00000000E+00
  0.00000000E+00  0.00000000E+00  0.00000000E+00
  0.00000000E+00  0.00000000E+00  0.00000000E+00
  0.00000000E+00  0.00000000E+00  0.00000000E+00
  0.00000000E+00  0.00000000E+00  0.00000000E+00
  0.00000000E+00  0.00000000E+00  0.00000000E+00
  0.00000000E+00  0.00000000E+00  0.00000000E+00
  0.00000000E+00  0.00000000E+00  0.00000000E+00
  0.00000000E+00  0.00000000E+00  0.00000000E+00
  0.00000000E+00  0.00000000E+00  0.00000000E+00
  0.00000000E+00  0.00000000E+00  0.00000000E+00
  0.00000000E+00  0.00000000E+00  0.00000000E+00
  0.00000000E+00  0.00000000E+00  0.00000000E+00
  0.00000000E+00  0.00000000E+00  0.00000000E+00
  0.00000000E+00  0.00000000E+00  0.00000000E+00
  0.00000000E+00  0.00000000E+00  0.00000000E+00
  0.00000000E+00  0.00000000E+00  0.00000000E+00
  0.00000000E+00  0.00000000E+00  0.00000000E+00
  0.00000000E+00  0.00000000E+00  0.00000000E+00
  0.00000000E+00  0.00000000E+00  0.00000000E+00
  0.00000000E+00  0.00000000E+00  0.00000000E+00
  0.00000000E+00  0.00000000E+00  0.00000000E+00
  0.00000000E+00  0.00000000E+00  0.00000000E+00
  0.00000000E+00  0.00000000E+00  0.00000000E+00
  0.00000000E+00  0.00000000E+00  0.00000000E+00
  0.00000000E+00  0.00000000E+00  0.00000000E+00
  0.00000000E+00  0.00000000E+00  0.00000000E+00
  0.00000000E+00  0.00000000E+00  0.00000000E+00
  0.00000000E+00  0.00000000E+00  0.00000000E+00
  0.00000000E+00  0.00000000E+00  0.00000000E+00
  0.00000000E+00  0.00000000E+00  0.00000000E+00
  0.00000000E+00  0.00000000E+00  0.00000000E+00
  0.00000000E+00  0.00000000E+00  0.00000000E+00
  0.00000000E+00  0.00000000E+00  0.00000000E+00
  0.00000000E+00  0.00000000E+00  0.00000000E+00
  0.00000000E+00  0.00000000E+00  0.00000000E+00
  0.00000000E+00  0.00000000E+00  0.00000000E+00
  0.00000000E+00  0.00000000E+00  0.00000000E+00
  0.00000000E+00  0.00000000E+00  0.00000000E+00
  0.00000000E+00  0.00000000E+00  0.00000000E+00
  0.00000000E+00  0.00000000E+00  0.00000000E+00
  0.00000000E+00  0.00000000E+00  0.00000000E+00
  0.00000000E+00  0.00000000E+00  0.00000000E+00
  0.00000000E+00  0.00000000E+00  0.00000000E+00
  0.00000000E+00  0.00000000E+00  0.00000000E+00
  0.00000000E+00  0.00000000E+00  0.00000000E+00
  0.00000000E+00  0.00000000E+00  0.00000000E+00
  0.00000000E+00  0.00000000E+00  0.00000000E+00
  0.00000000E+00  0.00000000E+00  0.00000000E+00
  0.00000000E+00  0.00000000E+00  0.00000000E+00
  0.00000000E+00  0.00000000E+00  0.00000000E+00
  0.00000000E+00  0.00000000E+00  0.00000000E+00
  0.00000000E+00  0.00000000E+00  0.00000000E+00
  0.00000000E+00  0.00000000E+00  0.00000000E+00
  0.00000000E+00  0.00000000E+00  0.00000000E+00
  0.00000000E+00  0.00000000E+00  0.00000000E+00
  0.00000000E+00  0.00000000E+00  0.00000000E+00
  0.00000000E+00  0.00000000E+00  0.00000000E+00
  0.00000000E+00  0.00000000E+00  0.00000000E+00
  0.00000000E+00  0.00000000E+00  0.00000000E+00
  0.00000000E+00  0.00000000E+00  0.00000000E+00
  0.00000000E+00  0.00000000E+00  0.00000000E+00
  0.00000000E+00  0.00000000E+00  0.00000000E+00
  0.00000000E+00  0.00000000E+00  0.00000000E+00
  0.00000000E+00  0.00000000E+00  0.00000000E+00
  0.00000000E+00  0.00000000E+00  0.00000000E+00
  0.00000000E+00  0.00000000E+00  0.00000000E+00
  0.00000000E+00  0.00000000E+00  0.00000000E+00
  0.00000000E+00  0.00000000E+00  0.00000000E+00
  0.00000000E+00  0.00000000E+00  0.00000000E+00
  0.00000000E+00  0.00000000E+00  0.00000000E+00
  0.00000000E+00  0.00000000E+00  0.00000000E+00
  0.00000000E+00  0.00000000E+00  0.00000000E+00
  0.00000000E+00  0.00000000E+00  0.00000000E+00
  0.00000000E+00  0.00000000E+00  0.00000000E+00
  0.00000000E+00  0.00000000E+00  0.00000000E+00
  0.00000000E+00  0.00000000E+00  0.00000000E+00
  0.00000000E+00  0.00000000E+00  0.00000000E+00
  0.00000000E+00  0.00000000E+00  0.00000000E+00
  0.00000000E+00  0.00000000E+00  0.00000000E+00
  0.00000000E+00  0.00000000E+00  0.00000000E+00
  0.00000000E+00  0.00000000E+00  0.00000000E+00
  0.00000000E+00  0.00000000E+00  0.00000000E+00
  0.00000000E+00  0.00000000E+00  0.00000000E+00
  0.00000000E+00  0.00000000E+00  0.00000000E+00
