kk
 1.0000000000000000
     0.0000000000000000   10.9373336906932952   10.9373336906932952
    10.9373336906932952    0.0000000000000000   10.9373336906932952
    10.9373336906932952   10.9373336906932952    0.0000000000000000
 128
Direct
  0.0072075958772423  0.9981216937260415  0.9895489359714384
  0.2544027921816440  0.9929561807773957  0.0000675108950965
  0.5029037454411990  0.0055660143577278  0.9976467383373815
  0.7574984832079267  0.9999549728796028  0.0007015870900705
  0.0076827093095834  0.2548724167502037  0.9990693370397468
  0.2506007768859749  0.2370603812870056  0.0093012610540134
  0.5111029606646780  0.2428624527441465  0.9954040756374029
  0.7506293931701521  0.2438465062904022  0.0056042678755107
  0.9867111910821789  0.5057373404990122  0.0127354067027277
  0.2469831193495469  0.5034348369000432  0.0027871409959311
  0.5059291777739797  0.5036610098149511  0.9979352872479165
  0.7537497026143429  0.4975586029198291  0.9976248392386577
  0.9994188445849861  0.7485866434490084  0.0094806107065617
  0.2537680933428124  0.7488520180376875  0.9962162028343833
  0.4986825741946447  0.7492647944490461  0.0000171354836347
  0.7390704140596188  0.7486165315840778  0.0095179207031582
  0.0034819161274471  0.9909402100839573  0.2558834296497534
  0.2485826515175257  0.9990843154386753  0.2534229666480313
  0.5086156805710725  0.9953593716978676  0.2439347714817964
  0.7514150405651798  0.9986377912604522  0.2396605518100035
  0.9987312342489872  0.2612690935044140  0.2471650600803873
  0.2384910041225008  0.2525419511283393  0.2637347812297836
  0.4945948141402901  0.2543122917259831  0.2441588475809953
  0.7350527422417954  0.2364361300206212  0.2695156250147914
  0.9882055481110968  0.5004678525608741  0.2575899840535039
  0.2545971211024733  0.4966214176354509  0.2477279997192424
  0.4974343582586975  0.5110399371843583  0.2452285425422087
  0.7524639770056272  0.4910161628515263  0.2457789565271303
  0.0017996937788313  0.7400769359317949  0.2487760639143460
  0.2603959681408659  0.7459065847071558  0.2435034650679566
  0.5104210191361372  0.7465069440705030  0.2426223544045971
  0.7457929328091910  0.7549339580545840  0.2427352967297767
  0.9888263018579879  0.0128530952025245  0.5072765540340908
  0.2436651572451171  0.0084780910248761  0.5051374148246839
  0.4879801626720788  0.0100114180028202  0.4945259990881872
  0.7464859459431130  0.0065119701656083  0.4958212252760698
  0.0070250383310234  0.2459182095059425  0.4969488744760748
  0.2390069040197497  0.2561428415340052  0.4955153719915110
  0.4997701242777008  0.2584185826176677  0.5031253944209734
  0.7485953812251298  0.2533932859235480  0.4886576892739236
  0.9975174317408498  0.5004966151124541  0.4887101328247723
  0.2711716479744574  0.4928841351594445  0.5026405310355948
  0.4983008023960490  0.4996198472060281  0.5030271110910765
  0.7649695007549440  0.4981903525311313  0.4996498283980983
  0.9970403482718295  0.7535437393547098  0.4930174283282782
  0.2502376160705723  0.7549399765275178  0.4941019205139491
  0.4941045921203349  0.7557189658773051  0.5122221985731615
  0.7523756770857951  0.7508240930100790  0.4968384480682055
  0.9972246833693335  0.0025923984551618  0.7531708581111308
  0.2588666760182494  0.9927065623885835  0.7571856476362224
  0.5013601937133548  0.9960938009497938  0.7479921798691436
  0.7518943970518865  0.9807673018308201  0.7624668796584085
  0.0164190492539774  0.2448051860278833  0.7531751899404461
  0.2558709790226142  0.2422550661922959  0.7535009278974999
  0.5029622592854848  0.2525835822762719  0.7528027678060065
  0.7485649432275678  0.2551558621375148  0.7388091750048744
  0.0081330202335358  0.4916357485340677  0.7471050874082376
  0.2384030911837147  0.4922026867941987  0.7600803978372890
  0.4947656756841199  0.5100429893800382  0.7368309698857659
  0.7465094736813641  0.5079762193048404  0.7534116426991629
  0.0051619807274905  0.7515001644630852  0.7399996742871993
  0.2469510560762135  0.7548290831771188  0.7544959811090644
  0.5081780383351162  0.7399146530434210  0.7498549404991042
  0.7418700755481471  0.7535055677957337  0.7514618716775542
  0.0586142333069434  0.0552151072990028  0.0662860729590291
  0.3185757391560036  0.0566100486904910  0.0607907573799202
  0.5493345861270359  0.0677429019163224  0.0654901808769136
  0.8115892631009526  0.0642703614187609  0.0600175771491017
  0.0688445424911275  0.3191006808280260  0.0615286746214913
  0.2996533004867752  0.3102310923508926  0.0668956880461524
  0.5502025974726060  0.3195765425378378  0.0658217412225939
  0.8181633227042368  0.3090798283786411  0.0534552628112817
  0.0555083169846069  0.5570917787214199  0.0712638831554460
  0.3020598750799791  0.5744701610895622  0.0681277397288816
  0.5725599574932215  0.5633286850878090  0.0623686404908895
  0.8117182908218959  0.5725204571946102  0.0559368793616906
  0.0556152933478084  0.8177794566938202  0.0656023943613053
  0.3075575890339203  0.8157399541701739  0.0685021113426368
  0.5571573174987633  0.8230987901275255  0.0633582514698259
  0.8216975795991147  0.8112451510111098  0.0558790148616740
  0.0679616160715091  0.0625319198210023  0.3079935205593048
  0.3200625251231108  0.0601912916065228  0.3035157650442142
  0.5689894848003396  0.0601277048891061  0.3135357930795430
  0.8174969224295160  0.0685464440079107  0.3166075853809234
  0.0655386291643774  0.3154591990256081  0.3215619959532146
  0.3074486340398560  0.3136192972163875  0.3133233397159244
  0.5534352484732551  0.3104659681469902  0.3245954105795851
  0.8152988176701639  0.3168061888645692  0.3013560064603901
  0.0535035311474132  0.5686843471818087  0.3032056280424024
  0.3200602529659891  0.5659543575339098  0.3024840577876408
  0.5691630857679550  0.5536626249234046  0.3087941315965283
  0.8003631143094168  0.5739783044783874  0.3024496804616499
  0.0613572668941102  0.8079955013595266  0.3104053179959300
  0.3123864317979752  0.8205022135642897  0.3141968261750800
  0.5667092656260571  0.8167340242355506  0.3023340856195529
  0.8197717969013159  0.8090314257466876  0.3001825570609050
  0.0608225136011821  0.0677842590378669  0.5669049061155931
  0.3129778351096802  0.0596033381707548  0.5711131259274579
  0.5660685580564472  0.0503764396941200  0.5657119987871432
  0.8085840393023982  0.0645316293723601  0.5682807745375330
  0.0580208978903219  0.3077921741730935  0.5611998267132811
  0.3083404278548728  0.3195059324291395  0.5639510881564960
  0.5694442731914429  0.2998242300033724  0.5717553043898700
  0.8148496073932168  0.3214222931381284  0.5486369383267311
  0.0710201252354768  0.5724917544756584  0.5568474100149409
  0.3072586247612787  0.5606981683422799  0.5785886839824964
  0.5584583869530381  0.5635372547265678  0.5649688348994912
  0.8040206547293105  0.5628184261000690  0.5709783777575121
  0.0527245085190048  0.8224095477782014  0.5603014005402717
  0.3235486691238183  0.8091364486443795  0.5579311164263896
  0.5624116305533590  0.8034825423310821  0.5721760177236689
  0.8165850023211416  0.8058338595001260  0.5663921251381988
  0.0672923858248074  0.0562149915014112  0.8067355166017321
  0.3292394555533132  0.0564197980025953  0.8094722801797052
  0.5738590501275972  0.0659233976356250  0.8065516807366765
  0.8191062440455981  0.0547207330047785  0.8100368311563517
  0.0655166655946734  0.3180112885426435  0.8056794870144997
  0.3117204054708937  0.3030080867778496  0.8171564997060725
  0.5672406992222652  0.3237034944285974  0.8034739200627754
  0.8188822218785666  0.3039961921114335  0.8162184763204768
  0.0570996457697281  0.5704476830494019  0.8132141035888242
  0.3113337132112293  0.5516782419166910  0.8128623961211893
  0.5646692191760145  0.5608173867348147  0.8133015469168939
  0.8128202428576310  0.5678035877907469  0.8048095340332597
  0.0569469861877911  0.8127534623425998  0.8176803883885418
  0.3035575997874572  0.8157732007393964  0.8149018179045511
  0.5573791502184662  0.8078657509884529  0.8199750150536529
  0.8110500246689725  0.8043752447109079  0.8152567000747065
