kk                                      
   1.00000000000000     
     0.0000000000000000   10.9373336906932952   10.9373336906932952
    10.9373336906932952    0.0000000000000000   10.9373336906932952
    10.9373336906932952   10.9373336906932952    0.0000000000000000
   Si
   128
Direct
  0.0058856487295103  0.9897300195871424  0.0029914123590160
  0.2378254355281300  0.0052434341431749  0.0104562372675616
  0.5017104570278832  0.9827559556591936  0.0114821920426422
  0.7448619317735918  0.0082986903535556  0.9957296943601861
  0.0024066272054455  0.2518955544760146  0.0075095987703122
  0.2535740141805292  0.2435480488449073  0.0150483186826307
  0.5094101458456137  0.2413520525487201  0.9953255967171657
  0.7381586519564465  0.2605192258692313  0.0011529915354558
  0.9993531363867092  0.5034982943241388  0.0018997589301009
  0.2533617119901166  0.5036481217919828  0.9923108562496807
  0.5030253827254114  0.5020395235840951  0.9965485129899321
  0.7482593358242866  0.5056171617689955  0.9984885028581445
  0.0023999141414066  0.7432769014116971  0.9895754172789708
  0.2525319935206198  0.7442022273288202  0.9922598717056275
  0.5003669015956760  0.7459443020071319  0.0056614668969530
  0.7524437052495117  0.7513598542830096  0.9885703367864238
  0.9967802935733303  0.9865982888473539  0.2544590194874203
  0.2398772195429970  0.9994855630961368  0.2463714531292069
  0.5054697520645490  0.9892954898173230  0.2573141601706226
  0.7471270347334951  0.9971798115487758  0.2569687776998464
  0.9920970878221169  0.2514237665907402  0.2505297379276712
  0.2360104942560284  0.2753314623976806  0.2419518176356874
  0.5078350548366686  0.2443744298679249  0.2418614822342704
  0.7454591508249635  0.2438588458102942  0.2458599266026340
  0.0028989079161548  0.5067773802575530  0.2432262038659232
  0.2507669615954384  0.4973116162079450  0.2590916127826333
  0.5048364589339229  0.4985107046967912  0.2477190670026062
  0.7412868373987820  0.4954619469637720  0.2651736883999973
  0.9992459166358572  0.7399417159995068  0.2515164113894812
  0.2438216137415097  0.7538790094441410  0.2444311498805334
  0.5095583517029709  0.7408004125465411  0.2462472984430875
  0.7627589241620285  0.7346083811993793  0.2619038301050267
  0.0091002877833262  0.9900821297451188  0.5067071197641013
  0.2537997644428458  0.0057610343987520  0.4908013186944373
  0.4918549040378437  0.9944952412264101  0.5047544398711707
  0.7542580222257698  0.0041207305760693  0.4983547688704419
  0.0114314426256854  0.2385210749058686  0.4933743245814242
  0.2504539993081281  0.2523432180538592  0.5022729231288992
  0.4898383318193282  0.2470579383406886  0.5075994523783862
  0.7602351198134585  0.2374507185503205  0.4956488272715092
  0.9971504704330698  0.5000856586442524  0.5023842002095620
  0.2489646299332051  0.5161300245530427  0.4950715583001113
  0.4980969312481989  0.5060562747513870  0.5059116396551460
  0.7601137615612501  0.4962395417448775  0.4979616910471805
  0.9973036918889022  0.7474635126807740  0.4994824381475240
  0.2533561101396415  0.7498100233133087  0.4946230500057140
  0.5098339042499020  0.7469239850528808  0.4884870677765818
  0.7605640488983028  0.7377927724340339  0.5010710469247570
  0.0027028554829585  0.0033122320928314  0.7451522317346431
  0.2513375671019773  0.9898586341703606  0.7601921636116984
  0.5008646064854929  0.9964578083662232  0.7484215454059822
  0.7542569433630177  0.0049247540028361  0.7399438676434755
  0.9941043241161438  0.2694047467343594  0.7439986808084242
  0.2486019743805983  0.2451275981771275  0.7554650435032499
  0.5070994162935847  0.2475764073316142  0.7543653713236225
  0.7469978707789835  0.2353624282177478  0.7473047552656240
  0.0043009903327587  0.4949277837508532  0.7507737982679004
  0.2460622111811901  0.5018979126057701  0.7489860736391947
  0.5142781159763103  0.4915679417606640  0.7581486384353227
  0.7525683490402315  0.5017038433012715  0.7522594197929706
  0.9967670577812626  0.7531929122203991  0.7489379751694401
  0.2420755737874387  0.7513584615671078  0.7531493149552375
  0.5002629505236271  0.7593316941370389  0.7482948090430241
  0.7446772782149722  0.7576594997722523  0.7425631742680565
  0.0543899502584750  0.0634972906433404  0.0674828215482677
  0.3141818077831715  0.0574848933863379  0.0644184218035520
  0.5660736714911891  0.0630522105543250  0.0512260304060916
  0.8043050538677861  0.0620580398981687  0.0714613170017131
  0.0504516925638043  0.3152113163821113  0.0766620081685190
  0.3207120216353658  0.3150560163150331  0.0565319156882751
  0.5577400361424196  0.3185896924828739  0.0598791442590354
  0.7966799335964794  0.3191610938030180  0.0737052693319100
  0.0580169259272409  0.5586396968808671  0.0675702888241219
  0.3210007834948669  0.5614019232253327  0.0550758005406209
  0.5658779222120245  0.5513379152708140  0.0645707155528044
  0.8110916120290597  0.5536287776352751  0.0667638488561693
  0.0730515948032746  0.8023465241360626  0.0598798177401392
  0.3220018157386519  0.8096890144259277  0.0616061554066789
  0.5668026337192131  0.8041235121705128  0.0650936426412159
  0.8096866565908698  0.8192986845734893  0.0630231854519110
  0.0478100244110280  0.0725857388450848  0.3245409973258973
  0.3048546875379472  0.0651666036356957  0.3128363927622360
  0.5536581326784500  0.0625138841974930  0.3215465603130383
  0.7993632586599801  0.0682886016970201  0.3145805262532306
  0.0566548021805886  0.3185890207021345  0.3186332698015732
  0.3068854886681223  0.3209989551469192  0.2960645535066391
  0.5572739702153768  0.3150017819078528  0.3115829092639402
  0.8088224614276598  0.3127783507713460  0.3072519503207829
  0.0530083404187280  0.5639792667630914  0.3164485219300772
  0.3174202805013522  0.5622695472413710  0.3127261092247196
  0.5553284488585177  0.5654067684160111  0.3165078200273825
  0.8224317992352965  0.5538134176131990  0.3146791329662335
  0.0633739658154084  0.8135881101379567  0.3184610815942719
  0.3202666117268933  0.8026996442456635  0.3167852292954620
  0.5633492263475901  0.8127975686912308  0.3118424259409309
  0.7944096043080293  0.8229280330623325  0.3142068972051675
  0.0643767657688983  0.0589099144596403  0.5603261289176515
  0.3130432609553537  0.0640877446136443  0.5649959933000588
  0.5707599708676625  0.0634473063085679  0.5737867912052579
  0.8226309343909790  0.0585369907345950  0.5539620964589460
  0.0594397860373164  0.3089780942828995  0.5690610890721999
  0.3254473185627162  0.3109657186630841  0.5567559920329828
  0.5699065917576220  0.3056581855200875  0.5529924936423214
  0.8019997554255625  0.3006766802859957  0.5760218452735373
  0.0760887787262305  0.5488577527236131  0.5663794335940580
  0.3120022646642937  0.5703142053252108  0.5585876280924680
  0.5685783867477028  0.5689593720887203  0.5561271928578719
  0.8153080725412778  0.5609705880978311  0.5708889778956419
  0.0462110454690006  0.8139020823898875  0.5707554527203200
  0.3192485803329461  0.8171150178668327  0.5553625815355687
  0.5579554943474179  0.8042645385773142  0.5694958990407173
  0.8038521168953281  0.8145067419463885  0.5596727804623640
  0.0620599508906849  0.0502424930487564  0.8186036761259103
  0.3178264153246388  0.0562673117215624  0.8095726350560568
  0.5651837115701639  0.0698442808443502  0.8066523818573046
  0.8138581479707909  0.0581091085804886  0.8074397184706257
  0.0582559271525938  0.3147652017770568  0.8234148818916864
  0.3155776422986918  0.3195192382761505  0.8051156863016971
  0.5624400049611964  0.3111006140735384  0.8165345486217674
  0.8097725231459165  0.3154184463757801  0.8180470458669404
  0.0552570277896933  0.5614912062910022  0.8165331472321142
  0.3185243502489783  0.5531718358981692  0.8140966452226124
  0.5638508687594239  0.5639666420851981  0.8190036592967758
  0.8106383271968909  0.5633625271501828  0.8124477040303688
  0.0548471837465030  0.8225510952557116  0.8142101058461293
  0.3143303701019917  0.8094801160981291  0.8153468123460073
  0.5540811724228618  0.8171367522790973  0.8127951992323261
  0.8162644581966418  0.8168286197172492  0.8086140569342035
 
  0.00000000E+00  0.00000000E+00  0.00000000E+00
  0.00000000E+00  0.00000000E+00  0.00000000E+00
  0.00000000E+00  0.00000000E+00  0.00000000E+00
  0.00000000E+00  0.00000000E+00  0.00000000E+00
  0.00000000E+00  0.00000000E+00  0.00000000E+00
  0.00000000E+00  0.00000000E+00  0.00000000E+00
  0.00000000E+00  0.00000000E+00  0.00000000E+00
  0.00000000E+00  0.00000000E+00  0.00000000E+00
  0.00000000E+00  0.00000000E+00  0.00000000E+00
  0.00000000E+00  0.00000000E+00  0.00000000E+00
  0.00000000E+00  0.00000000E+00  0.00000000E+00
  0.00000000E+00  0.00000000E+00  0.00000000E+00
  0.00000000E+00  0.00000000E+00  0.00000000E+00
  0.00000000E+00  0.00000000E+00  0.00000000E+00
  0.00000000E+00  0.00000000E+00  0.00000000E+00
  0.00000000E+00  0.00000000E+00  0.00000000E+00
  0.00000000E+00  0.00000000E+00  0.00000000E+00
  0.00000000E+00  0.00000000E+00  0.00000000E+00
  0.00000000E+00  0.00000000E+00  0.00000000E+00
  0.00000000E+00  0.00000000E+00  0.00000000E+00
  0.00000000E+00  0.00000000E+00  0.00000000E+00
  0.00000000E+00  0.00000000E+00  0.00000000E+00
  0.00000000E+00  0.00000000E+00  0.00000000E+00
  0.00000000E+00  0.00000000E+00  0.00000000E+00
  0.00000000E+00  0.00000000E+00  0.00000000E+00
  0.00000000E+00  0.00000000E+00  0.00000000E+00
  0.00000000E+00  0.00000000E+00  0.00000000E+00
  0.00000000E+00  0.00000000E+00  0.00000000E+00
  0.00000000E+00  0.00000000E+00  0.00000000E+00
  0.00000000E+00  0.00000000E+00  0.00000000E+00
  0.00000000E+00  0.00000000E+00  0.00000000E+00
  0.00000000E+00  0.00000000E+00  0.00000000E+00
  0.00000000E+00  0.00000000E+00  0.00000000E+00
  0.00000000E+00  0.00000000E+00  0.00000000E+00
  0.00000000E+00  0.00000000E+00  0.00000000E+00
  0.00000000E+00  0.00000000E+00  0.00000000E+00
  0.00000000E+00  0.00000000E+00  0.00000000E+00
  0.00000000E+00  0.00000000E+00  0.00000000E+00
  0.00000000E+00  0.00000000E+00  0.00000000E+00
  0.00000000E+00  0.00000000E+00  0.00000000E+00
  0.00000000E+00  0.00000000E+00  0.00000000E+00
  0.00000000E+00  0.00000000E+00  0.00000000E+00
  0.00000000E+00  0.00000000E+00  0.00000000E+00
  0.00000000E+00  0.00000000E+00  0.00000000E+00
  0.00000000E+00  0.00000000E+00  0.00000000E+00
  0.00000000E+00  0.00000000E+00  0.00000000E+00
  0.00000000E+00  0.00000000E+00  0.00000000E+00
  0.00000000E+00  0.00000000E+00  0.00000000E+00
  0.00000000E+00  0.00000000E+00  0.00000000E+00
  0.00000000E+00  0.00000000E+00  0.00000000E+00
  0.00000000E+00  0.00000000E+00  0.00000000E+00
  0.00000000E+00  0.00000000E+00  0.00000000E+00
  0.00000000E+00  0.00000000E+00  0.00000000E+00
  0.00000000E+00  0.00000000E+00  0.00000000E+00
  0.00000000E+00  0.00000000E+00  0.00000000E+00
  0.00000000E+00  0.00000000E+00  0.00000000E+00
  0.00000000E+00  0.00000000E+00  0.00000000E+00
  0.00000000E+00  0.00000000E+00  0.00000000E+00
  0.00000000E+00  0.00000000E+00  0.00000000E+00
  0.00000000E+00  0.00000000E+00  0.00000000E+00
  0.00000000E+00  0.00000000E+00  0.00000000E+00
  0.00000000E+00  0.00000000E+00  0.00000000E+00
  0.00000000E+00  0.00000000E+00  0.00000000E+00
  0.00000000E+00  0.00000000E+00  0.00000000E+00
  0.00000000E+00  0.00000000E+00  0.00000000E+00
  0.00000000E+00  0.00000000E+00  0.00000000E+00
  0.00000000E+00  0.00000000E+00  0.00000000E+00
  0.00000000E+00  0.00000000E+00  0.00000000E+00
  0.00000000E+00  0.00000000E+00  0.00000000E+00
  0.00000000E+00  0.00000000E+00  0.00000000E+00
  0.00000000E+00  0.00000000E+00  0.00000000E+00
  0.00000000E+00  0.00000000E+00  0.00000000E+00
  0.00000000E+00  0.00000000E+00  0.00000000E+00
  0.00000000E+00  0.00000000E+00  0.00000000E+00
  0.00000000E+00  0.00000000E+00  0.00000000E+00
  0.00000000E+00  0.00000000E+00  0.00000000E+00
  0.00000000E+00  0.00000000E+00  0.00000000E+00
  0.00000000E+00  0.00000000E+00  0.00000000E+00
  0.00000000E+00  0.00000000E+00  0.00000000E+00
  0.00000000E+00  0.00000000E+00  0.00000000E+00
  0.00000000E+00  0.00000000E+00  0.00000000E+00
  0.00000000E+00  0.00000000E+00  0.00000000E+00
  0.00000000E+00  0.00000000E+00  0.00000000E+00
  0.00000000E+00  0.00000000E+00  0.00000000E+00
  0.00000000E+00  0.00000000E+00  0.00000000E+00
  0.00000000E+00  0.00000000E+00  0.00000000E+00
  0.00000000E+00  0.00000000E+00  0.00000000E+00
  0.00000000E+00  0.00000000E+00  0.00000000E+00
  0.00000000E+00  0.00000000E+00  0.00000000E+00
  0.00000000E+00  0.00000000E+00  0.00000000E+00
  0.00000000E+00  0.00000000E+00  0.00000000E+00
  0.00000000E+00  0.00000000E+00  0.00000000E+00
  0.00000000E+00  0.00000000E+00  0.00000000E+00
  0.00000000E+00  0.00000000E+00  0.00000000E+00
  0.00000000E+00  0.00000000E+00  0.00000000E+00
  0.00000000E+00  0.00000000E+00  0.00000000E+00
  0.00000000E+00  0.00000000E+00  0.00000000E+00
  0.00000000E+00  0.00000000E+00  0.00000000E+00
  0.00000000E+00  0.00000000E+00  0.00000000E+00
  0.00000000E+00  0.00000000E+00  0.00000000E+00
  0.00000000E+00  0.00000000E+00  0.00000000E+00
  0.00000000E+00  0.00000000E+00  0.00000000E+00
  0.00000000E+00  0.00000000E+00  0.00000000E+00
  0.00000000E+00  0.00000000E+00  0.00000000E+00
  0.00000000E+00  0.00000000E+00  0.00000000E+00
  0.00000000E+00  0.00000000E+00  0.00000000E+00
  0.00000000E+00  0.00000000E+00  0.00000000E+00
  0.00000000E+00  0.00000000E+00  0.00000000E+00
  0.00000000E+00  0.00000000E+00  0.00000000E+00
  0.00000000E+00  0.00000000E+00  0.00000000E+00
  0.00000000E+00  0.00000000E+00  0.00000000E+00
  0.00000000E+00  0.00000000E+00  0.00000000E+00
  0.00000000E+00  0.00000000E+00  0.00000000E+00
  0.00000000E+00  0.00000000E+00  0.00000000E+00
  0.00000000E+00  0.00000000E+00  0.00000000E+00
  0.00000000E+00  0.00000000E+00  0.00000000E+00
  0.00000000E+00  0.00000000E+00  0.00000000E+00
  0.00000000E+00  0.00000000E+00  0.00000000E+00
  0.00000000E+00  0.00000000E+00  0.00000000E+00
  0.00000000E+00  0.00000000E+00  0.00000000E+00
  0.00000000E+00  0.00000000E+00  0.00000000E+00
  0.00000000E+00  0.00000000E+00  0.00000000E+00
  0.00000000E+00  0.00000000E+00  0.00000000E+00
  0.00000000E+00  0.00000000E+00  0.00000000E+00
  0.00000000E+00  0.00000000E+00  0.00000000E+00
  0.00000000E+00  0.00000000E+00  0.00000000E+00
  0.00000000E+00  0.00000000E+00  0.00000000E+00
  0.00000000E+00  0.00000000E+00  0.00000000E+00
