kk
 1.0000000000000000
     0.0000000000000000   10.9373336906932952   10.9373336906932952
    10.9373336906932952    0.0000000000000000   10.9373336906932952
    10.9373336906932952   10.9373336906932952    0.0000000000000000
 128
Direct
  0.0058856487295137  0.9897300195871456  0.0029914123590141
  0.2378254355281294  0.0052434341431727  0.0104562372675615
  0.5017104570278809  0.9827559556591944  0.0114821920426394
  0.7448619317735943  0.0082986903535562  0.9957296943601885
  0.0024066272054454  0.2518955544760169  0.0075095987703099
  0.2535740141805313  0.2435480488449061  0.0150483186826309
  0.5094101458456112  0.2413520525487203  0.9953255967171680
  0.7381586519564448  0.2605192258692314  0.0011529915354553
  0.9993531363867116  0.5034982943241412  0.0018997589301017
  0.2533617119901201  0.5036481217919823  0.9923108562496797
  0.5030253827254146  0.5020395235840965  0.9965485129899330
  0.7482593358242837  0.5056171617689980  0.9984885028581469
  0.0023999141414099  0.7432769014116952  0.9895754172789692
  0.2525319935206178  0.7442022273288168  0.9922598717056261
  0.5003669015956759  0.7459443020071300  0.0056614668969533
  0.7524437052495119  0.7513598542830104  0.9885703367864271
  0.9967802935733298  0.9865982888473563  0.2544590194874229
  0.2398772195429975  0.9994855630961366  0.2463714531292036
  0.5054697520645490  0.9892954898173197  0.2573141601706216
  0.7471270347334923  0.9971798115487729  0.2569687776998498
  0.9920970878221166  0.2514237665907372  0.2505297379276678
  0.2360104942560290  0.2753314623976827  0.2419518176356845
  0.5078350548366709  0.2443744298679277  0.2418614822342691
  0.7454591508249632  0.2438588458102918  0.2458599266026357
  0.0028989079161531  0.5067773802575547  0.2432262038659208
  0.2507669615954364  0.4973116162079446  0.2590916127826344
  0.5048364589339216  0.4985107046967902  0.2477190670026048
  0.7412868373987811  0.4954619469637711  0.2651736883999962
  0.9992459166358566  0.7399417159995040  0.2515164113894846
  0.2438216137415066  0.7538790094441407  0.2444311498805339
  0.5095583517029679  0.7408004125465409  0.2462472984430889
  0.7627589241620272  0.7346083811993764  0.2619038301050240
  0.0091002877833281  0.9900821297451180  0.5067071197641008
  0.2537997644428451  0.0057610343987503  0.4908013186944339
  0.4918549040378405  0.9944952412264076  0.5047544398711736
  0.7542580222257719  0.0041207305760690  0.4983547688704431
  0.0114314426256852  0.2385210749058656  0.4933743245814212
  0.2504539993081298  0.2523432180538625  0.5022729231289026
  0.4898383318193250  0.2470579383406900  0.5075994523783836
  0.7602351198134580  0.2374507185503205  0.4956488272715109
  0.9971504704330668  0.5000856586442521  0.5023842002095640
  0.2489646299332020  0.5161300245530457  0.4950715583001122
  0.4980969312481996  0.5060562747513898  0.5059116396551446
  0.7601137615612524  0.4962395417448782  0.4979616910471822
  0.9973036918889014  0.7474635126807764  0.4994824381475249
  0.2533561101396387  0.7498100233133058  0.4946230500057106
  0.5098339042499027  0.7469239850528779  0.4884870677765814
  0.7605640488983049  0.7377927724340345  0.5010710469247570
  0.0027028554829551  0.0033122320928345  0.7451522317346442
  0.2513375671019741  0.9898586341703609  0.7601921636116958
  0.5008646064854910  0.9964578083662200  0.7484215454059815
  0.7542569433630153  0.0049247540028336  0.7399438676434770
  0.9941043241161445  0.2694047467343588  0.7439986808084232
  0.2486019743805973  0.2451275981771290  0.7554650435032508
  0.5070994162935845  0.2475764073316161  0.7543653713236232
  0.7469978707789842  0.2353624282177458  0.7473047552656248
  0.0043009903327615  0.4949277837508518  0.7507737982678985
  0.2460622111811868  0.5018979126057731  0.7489860736391961
  0.5142781159763101  0.4915679417606668  0.7581486384353238
  0.7525683490402340  0.5017038433012697  0.7522594197929731
  0.9967670577812626  0.7531929122203994  0.7489379751694434
  0.2420755737874359  0.7513584615671071  0.7531493149552376
  0.5002629505236241  0.7593316941370356  0.7482948090430218
  0.7446772782149699  0.7576594997722521  0.7425631742680553
  0.0543899502584784  0.0634972906433418  0.0674828215482674
  0.3141818077831728  0.0574848933863376  0.0644184218035539
  0.5660736714911921  0.0630522105543284  0.0512260304060937
  0.8043050538677828  0.0620580398981709  0.0714613170017100
  0.0504516925638020  0.3152113163821086  0.0766620081685178
  0.3207120216353678  0.3150560163150358  0.0565319156882720
  0.5577400361424208  0.3185896924828713  0.0598791442590368
  0.7966799335964760  0.3191610938030178  0.0737052693319081
  0.0580169259272401  0.5586396968808706  0.0675702888241211
  0.3210007834948690  0.5614019232253312  0.0550758005406185
  0.5658779222120230  0.5513379152708141  0.0645707155528061
  0.8110916120290602  0.5536287776352767  0.0667638488561724
  0.0730515948032762  0.8023465241360654  0.0598798177401408
  0.3220018157386515  0.8096890144259254  0.0616061554066784
  0.5668026337192112  0.8041235121705113  0.0650936426412187
  0.8096866565908687  0.8192986845734868  0.0630231854519130
  0.0478100244110272  0.0725857388450823  0.3245409973258972
  0.3048546875379449  0.0651666036356950  0.3128363927622375
  0.5536581326784479  0.0625138841974955  0.3215465603130380
  0.7993632586599824  0.0682886016970209  0.3145805262532329
  0.0566548021805884  0.3185890207021365  0.3186332698015740
  0.3068854886681198  0.3209989551469176  0.2960645535066406
  0.5572739702153787  0.3150017819078528  0.3115829092639378
  0.8088224614276615  0.3127783507713491  0.3072519503207862
  0.0530083404187307  0.5639792667630932  0.3164485219300803
  0.3174202805013521  0.5622695472413745  0.3127261092247230
  0.5553284488585146  0.5654067684160085  0.3165078200273851
  0.8224317992352987  0.5538134176131996  0.3146791329662355
  0.0633739658154104  0.8135881101379540  0.3184610815942737
  0.3202666117268899  0.8026996442456626  0.3167852292954609
  0.5633492263475894  0.8127975686912320  0.3118424259409323
  0.7944096043080271  0.8229280330623338  0.3142068972051659
  0.0643767657689012  0.0589099144596381  0.5603261289176503
  0.3130432609553531  0.0640877446136442  0.5649959933000568
  0.5707599708676655  0.0634473063085673  0.5737867912052590
  0.8226309343909820  0.0585369907345966  0.5539620964589453
  0.0594397860373150  0.3089780942829012  0.5690610890721994
  0.3254473185627145  0.3109657186630864  0.5567559920329846
  0.5699065917576213  0.3056581855200891  0.5529924936423183
  0.8019997554255652  0.3006766802859969  0.5760218452735357
  0.0760887787262304  0.5488577527236140  0.5663794335940558
  0.3120022646642908  0.5703142053252093  0.5585876280924692
  0.5685783867477029  0.5689593720887230  0.5561271928578724
  0.8153080725412800  0.5609705880978318  0.5708889778956419
  0.0462110454689973  0.8139020823898843  0.5707554527203192
  0.3192485803329465  0.8171150178668344  0.5553625815355706
  0.5579554943474200  0.8042645385773133  0.5694958990407138
  0.8038521168953311  0.8145067419463908  0.5596727804623638
  0.0620599508906855  0.0502424930487567  0.8186036761259137
  0.3178264153246361  0.0562673117215623  0.8095726350560568
  0.5651837115701634  0.0698442808443504  0.8066523818573031
  0.8138581479707920  0.0581091085804905  0.8074397184706282
  0.0582559271525932  0.3147652017770535  0.8234148818916868
  0.3155776422986930  0.3195192382761485  0.8051156863016955
  0.5624400049611986  0.3111006140735363  0.8165345486217709
  0.8097725231459199  0.3154184463757774  0.8180470458669412
  0.0552570277896920  0.5614912062910004  0.8165331472321137
  0.3185243502489759  0.5531718358981725  0.8140966452226108
  0.5638508687594248  0.5639666420851964  0.8190036592967724
  0.8106383271968893  0.5633625271501820  0.8124477040303669
  0.0548471837465058  0.8225510952557115  0.8142101058461273
  0.3143303701019927  0.8094801160981298  0.8153468123460089
  0.5540811724228600  0.8171367522790951  0.8127951992323235
  0.8162644581966435  0.8168286197172498  0.8086140569342055
