kk                                      
   1.00000000000000     
     0.0000000000000000   10.9373336906932952   10.9373336906932952
    10.9373336906932952    0.0000000000000000   10.9373336906932952
    10.9373336906932952   10.9373336906932952    0.0000000000000000
   Si
   128
Direct
  0.9966206569056837  0.0022884146775084  0.0051611787457233
  0.2599190491532042  0.9866776945039817  0.0051483204468497
  0.4887110146512228  0.0114515476940937  0.9954173788011857
  0.7432977397014042  0.0001976232254322  0.0065431404654106
  0.9927660110777197  0.2509907967550760  0.0047558277107953
  0.2519323769006832  0.2513093610960837  0.0013335328920121
  0.5041411533596900  0.2488560627065795  0.9814081054325996
  0.7652929807705391  0.2519577589103150  0.9970410476624352
  0.0013953883058520  0.5021683473896061  0.9883035406415246
  0.2472429312876017  0.5068839894164867  0.0143409566703241
  0.4921814461452314  0.4902735995024514  0.0075345171142658
  0.7610239320165917  0.4903311206248944  0.0014828555021822
  0.9980664339786500  0.7652767858729348  0.9918320459998000
  0.2504119795510817  0.7524286970402372  0.9990657887346259
  0.4992550892841194  0.7496536860420875  0.9967383220408763
  0.7422806569109213  0.7537544972440884  0.9969942246915338
  0.0201962515579552  0.9912120397661397  0.2428857859557496
  0.2525031514553575  0.9946041753745121  0.2442543584504051
  0.4953367393242374  0.0072908635104625  0.2539561897693687
  0.7583317039479738  0.9947825518399895  0.2484878756174851
  0.9939663539137413  0.2518440197292833  0.2482949270592698
  0.2463745763302327  0.2409625578340595  0.2530483826672310
  0.4958109637480277  0.2566261395601970  0.2446073843888286
  0.7534083685903283  0.2465538254744644  0.2520295112761985
  0.0096212758792547  0.4940652926364919  0.2555781787258695
  0.2557088132773231  0.5059942943164799  0.2434518916147255
  0.4918028869631073  0.5074087167545827  0.2464056586347709
  0.7401013056624350  0.5115984779535907  0.2477554176433685
  0.9952336480569457  0.7436209270712837  0.2475513836827545
  0.2541595184653858  0.7484347031522702  0.2544819821397581
  0.5104446260339373  0.7449600681157804  0.2496295145136784
  0.7444186073900738  0.7595540370301492  0.2516816406002320
  0.0053051945844089  0.0065009855392049  0.4886059444602324
  0.2478156940330223  0.9940061157850621  0.4987815076994551
  0.5003715502529076  0.0008729465489026  0.5001806008378651
  0.7550480000350746  0.9968487329370319  0.5042057101729327
  0.9941206202194479  0.2455930188190365  0.4970621481465258
  0.2532761433275397  0.2527850563980039  0.4972627597280450
  0.4913970492687483  0.2462293020608968  0.5089154690854016
  0.7428198381021360  0.2670277280237201  0.4908461733605520
  0.9900643231810875  0.4983487770768633  0.5098333248904368
  0.2439113385452458  0.4954470919298899  0.5037793764473193
  0.4999849781962453  0.5008041666980958  0.5075100179217600
  0.7540139113011222  0.4886254429012737  0.5022498836826088
  0.0082033008809006  0.7569240716483208  0.4945353723365429
  0.2396568041049605  0.7573552644359864  0.5157017265793584
  0.5081025075901167  0.7275299360688550  0.5103911903839133
  0.7420065576194332  0.7482389168274537  0.5005307916900037
  0.9959666752320615  0.0028321797931810  0.7490113063335784
  0.2486819700254443  0.0074270336054809  0.7510094446576474
  0.5048563401560031  0.0059324758570867  0.7444941143702835
  0.7596523244865949  0.9947204439662087  0.7483428354249000
  0.9948317299339422  0.2514588262509179  0.7496646138929464
  0.2442854350571722  0.2576419438983777  0.7576990089984719
  0.5007775969984536  0.2511962133459491  0.7598412952539064
  0.7400040747523420  0.2521552080703913  0.7574465147386178
  0.9898813609704220  0.5147822869375389  0.7510823708321794
  0.2520798276780738  0.4980589982141268  0.7525515546091412
  0.5116915847207011  0.4873591877606742  0.7553270247139992
  0.7437665788931440  0.5008175961027845  0.7555510343302672
  0.0139031474342843  0.7422125691552566  0.7512568545861384
  0.2671478077582350  0.7529802871436218  0.7426934504917426
  0.5021519897798967  0.7469336293794555  0.7438884437188875
  0.7488867943833881  0.7436019851749194  0.7586961957920479
  0.0627467846958467  0.0629661882551957  0.0607283358553588
  0.3010422639594452  0.0706677734058445  0.0539042701971368
  0.5525069217239960  0.0698150753665132  0.0705169915076738
  0.8130749284308720  0.0740861742806302  0.0622793027260116
  0.0662242295571431  0.3163455483403439  0.0552770570241350
  0.3188138902361288  0.3099387356346099  0.0585752956155474
  0.5547646358874871  0.3053741247667787  0.0664863892689098
  0.8122760436816776  0.3053863505956400  0.0700629887071074
  0.0670668505787972  0.5586334170268970  0.0658449503079694
  0.3217921167648399  0.5753920995397337  0.0484234854000292
  0.5686379270487691  0.5612372354438406  0.0582543499278856
  0.8086641549261913  0.5687782718040211  0.0579828563873406
  0.0710371294034857  0.8134634976148050  0.0563529008133443
  0.3174576977063310  0.8056024776313606  0.0589365063294593
  0.5688162537983459  0.8007489852524898  0.0617238445769530
  0.8168101638177347  0.8103299824163344  0.0691870095035512
  0.0754727084013993  0.0578770687886845  0.3163281878339532
  0.3196835483194107  0.0724364837802369  0.3023955423929934
  0.5528874777999491  0.0706326714548950  0.3193782628034825
  0.8088023706293939  0.0688586611433095  0.3067660690374510
  0.0576407769333116  0.3079363684847749  0.3129190342746924
  0.3121294897661855  0.3038603867099994  0.3115644992477868
  0.5630242203209548  0.3174503501643002  0.3127011987638397
  0.8116115362157927  0.3202036056476487  0.3009029260023652
  0.0654984234041009  0.5548833215087896  0.3237168645686808
  0.2992900600079338  0.5712478626132977  0.3101334294394462
  0.5550204462895181  0.5683498321699929  0.3174268146147057
  0.8056181292196456  0.5633681370756563  0.3079149012967690
  0.0527724224316728  0.8089669348950750  0.3153556796547079
  0.3096219388675010  0.8117920450751512  0.3139688282915358
  0.5583490508986699  0.8111528696327142  0.3082508003583797
  0.8118998710525887  0.8208400526232893  0.3077709978061804
  0.0611923724140055  0.0689007637433718  0.5616142353825992
  0.3235478418652136  0.0648522241364873  0.5434521954620237
  0.5709529729370786  0.0614133509434041  0.5496278576831131
  0.8072800147699724  0.0641923621334328  0.5667271939327918
  0.0535602265760176  0.3193823738813535  0.5659254490577439
  0.3092025842836890  0.3012646055706156  0.5709023914207592
  0.5568149400120888  0.3153559114977327  0.5692055696388110
  0.8168952533151881  0.2982431210189134  0.5610558689524439
  0.0614771157602263  0.5497611771218232  0.5705502181449731
  0.3102776582485589  0.5595739780543525  0.5696819097020906
  0.5752088217251412  0.5476242420580490  0.5732476178811794
  0.7925204571928006  0.5732427798349207  0.5749984191825916
  0.0525614403515107  0.8308186980880592  0.5609534716890110
  0.3164669433845688  0.8097748239609857  0.5612685875129344
  0.5603069367953779  0.8076556324508601  0.5642904150147743
  0.8171513008201003  0.8113672956993270  0.5552462564887577
  0.0656664698759997  0.0605547439146221  0.8108916544878539
  0.3062604797699748  0.0622575236270322  0.8101338359624677
  0.5619009792456566  0.0575461823910430  0.8114559920134283
  0.8070730023689023  0.0490654147336471  0.8286802478125921
  0.0716233433802387  0.3163548263375588  0.8053647215151614
  0.3201582996142847  0.3124721574512819  0.8040351080032409
  0.5641148187555345  0.3181516172088550  0.8105620847333412
  0.8201351750709023  0.3167948499497300  0.8121507468064451
  0.0661684674731333  0.5647942937054253  0.8109456854009096
  0.3119051374797834  0.5606908913699087  0.8142815334040634
  0.5602674320686845  0.5536140723189291  0.8248342767403116
  0.8174774721126852  0.5607837808556582  0.8116874431758987
  0.0699987176007824  0.8096451288531554  0.8076755748454971
  0.3108249509848235  0.8116434373367625  0.8100741891331182
  0.5654412295199194  0.8013727278889817  0.8146395521558958
  0.7979441973468440  0.8157328176478558  0.8185795203733548
 
  0.00000000E+00  0.00000000E+00  0.00000000E+00
  0.00000000E+00  0.00000000E+00  0.00000000E+00
  0.00000000E+00  0.00000000E+00  0.00000000E+00
  0.00000000E+00  0.00000000E+00  0.00000000E+00
  0.00000000E+00  0.00000000E+00  0.00000000E+00
  0.00000000E+00  0.00000000E+00  0.00000000E+00
  0.00000000E+00  0.00000000E+00  0.00000000E+00
  0.00000000E+00  0.00000000E+00  0.00000000E+00
  0.00000000E+00  0.00000000E+00  0.00000000E+00
  0.00000000E+00  0.00000000E+00  0.00000000E+00
  0.00000000E+00  0.00000000E+00  0.00000000E+00
  0.00000000E+00  0.00000000E+00  0.00000000E+00
  0.00000000E+00  0.00000000E+00  0.00000000E+00
  0.00000000E+00  0.00000000E+00  0.00000000E+00
  0.00000000E+00  0.00000000E+00  0.00000000E+00
  0.00000000E+00  0.00000000E+00  0.00000000E+00
  0.00000000E+00  0.00000000E+00  0.00000000E+00
  0.00000000E+00  0.00000000E+00  0.00000000E+00
  0.00000000E+00  0.00000000E+00  0.00000000E+00
  0.00000000E+00  0.00000000E+00  0.00000000E+00
  0.00000000E+00  0.00000000E+00  0.00000000E+00
  0.00000000E+00  0.00000000E+00  0.00000000E+00
  0.00000000E+00  0.00000000E+00  0.00000000E+00
  0.00000000E+00  0.00000000E+00  0.00000000E+00
  0.00000000E+00  0.00000000E+00  0.00000000E+00
  0.00000000E+00  0.00000000E+00  0.00000000E+00
  0.00000000E+00  0.00000000E+00  0.00000000E+00
  0.00000000E+00  0.00000000E+00  0.00000000E+00
  0.00000000E+00  0.00000000E+00  0.00000000E+00
  0.00000000E+00  0.00000000E+00  0.00000000E+00
  0.00000000E+00  0.00000000E+00  0.00000000E+00
  0.00000000E+00  0.00000000E+00  0.00000000E+00
  0.00000000E+00  0.00000000E+00  0.00000000E+00
  0.00000000E+00  0.00000000E+00  0.00000000E+00
  0.00000000E+00  0.00000000E+00  0.00000000E+00
  0.00000000E+00  0.00000000E+00  0.00000000E+00
  0.00000000E+00  0.00000000E+00  0.00000000E+00
  0.00000000E+00  0.00000000E+00  0.00000000E+00
  0.00000000E+00  0.00000000E+00  0.00000000E+00
  0.00000000E+00  0.00000000E+00  0.00000000E+00
  0.00000000E+00  0.00000000E+00  0.00000000E+00
  0.00000000E+00  0.00000000E+00  0.00000000E+00
  0.00000000E+00  0.00000000E+00  0.00000000E+00
  0.00000000E+00  0.00000000E+00  0.00000000E+00
  0.00000000E+00  0.00000000E+00  0.00000000E+00
  0.00000000E+00  0.00000000E+00  0.00000000E+00
  0.00000000E+00  0.00000000E+00  0.00000000E+00
  0.00000000E+00  0.00000000E+00  0.00000000E+00
  0.00000000E+00  0.00000000E+00  0.00000000E+00
  0.00000000E+00  0.00000000E+00  0.00000000E+00
  0.00000000E+00  0.00000000E+00  0.00000000E+00
  0.00000000E+00  0.00000000E+00  0.00000000E+00
  0.00000000E+00  0.00000000E+00  0.00000000E+00
  0.00000000E+00  0.00000000E+00  0.00000000E+00
  0.00000000E+00  0.00000000E+00  0.00000000E+00
  0.00000000E+00  0.00000000E+00  0.00000000E+00
  0.00000000E+00  0.00000000E+00  0.00000000E+00
  0.00000000E+00  0.00000000E+00  0.00000000E+00
  0.00000000E+00  0.00000000E+00  0.00000000E+00
  0.00000000E+00  0.00000000E+00  0.00000000E+00
  0.00000000E+00  0.00000000E+00  0.00000000E+00
  0.00000000E+00  0.00000000E+00  0.00000000E+00
  0.00000000E+00  0.00000000E+00  0.00000000E+00
  0.00000000E+00  0.00000000E+00  0.00000000E+00
  0.00000000E+00  0.00000000E+00  0.00000000E+00
  0.00000000E+00  0.00000000E+00  0.00000000E+00
  0.00000000E+00  0.00000000E+00  0.00000000E+00
  0.00000000E+00  0.00000000E+00  0.00000000E+00
  0.00000000E+00  0.00000000E+00  0.00000000E+00
  0.00000000E+00  0.00000000E+00  0.00000000E+00
  0.00000000E+00  0.00000000E+00  0.00000000E+00
  0.00000000E+00  0.00000000E+00  0.00000000E+00
  0.00000000E+00  0.00000000E+00  0.00000000E+00
  0.00000000E+00  0.00000000E+00  0.00000000E+00
  0.00000000E+00  0.00000000E+00  0.00000000E+00
  0.00000000E+00  0.00000000E+00  0.00000000E+00
  0.00000000E+00  0.00000000E+00  0.00000000E+00
  0.00000000E+00  0.00000000E+00  0.00000000E+00
  0.00000000E+00  0.00000000E+00  0.00000000E+00
  0.00000000E+00  0.00000000E+00  0.00000000E+00
  0.00000000E+00  0.00000000E+00  0.00000000E+00
  0.00000000E+00  0.00000000E+00  0.00000000E+00
  0.00000000E+00  0.00000000E+00  0.00000000E+00
  0.00000000E+00  0.00000000E+00  0.00000000E+00
  0.00000000E+00  0.00000000E+00  0.00000000E+00
  0.00000000E+00  0.00000000E+00  0.00000000E+00
  0.00000000E+00  0.00000000E+00  0.00000000E+00
  0.00000000E+00  0.00000000E+00  0.00000000E+00
  0.00000000E+00  0.00000000E+00  0.00000000E+00
  0.00000000E+00  0.00000000E+00  0.00000000E+00
  0.00000000E+00  0.00000000E+00  0.00000000E+00
  0.00000000E+00  0.00000000E+00  0.00000000E+00
  0.00000000E+00  0.00000000E+00  0.00000000E+00
  0.00000000E+00  0.00000000E+00  0.00000000E+00
  0.00000000E+00  0.00000000E+00  0.00000000E+00
  0.00000000E+00  0.00000000E+00  0.00000000E+00
  0.00000000E+00  0.00000000E+00  0.00000000E+00
  0.00000000E+00  0.00000000E+00  0.00000000E+00
  0.00000000E+00  0.00000000E+00  0.00000000E+00
  0.00000000E+00  0.00000000E+00  0.00000000E+00
  0.00000000E+00  0.00000000E+00  0.00000000E+00
  0.00000000E+00  0.00000000E+00  0.00000000E+00
  0.00000000E+00  0.00000000E+00  0.00000000E+00
  0.00000000E+00  0.00000000E+00  0.00000000E+00
  0.00000000E+00  0.00000000E+00  0.00000000E+00
  0.00000000E+00  0.00000000E+00  0.00000000E+00
  0.00000000E+00  0.00000000E+00  0.00000000E+00
  0.00000000E+00  0.00000000E+00  0.00000000E+00
  0.00000000E+00  0.00000000E+00  0.00000000E+00
  0.00000000E+00  0.00000000E+00  0.00000000E+00
  0.00000000E+00  0.00000000E+00  0.00000000E+00
  0.00000000E+00  0.00000000E+00  0.00000000E+00
  0.00000000E+00  0.00000000E+00  0.00000000E+00
  0.00000000E+00  0.00000000E+00  0.00000000E+00
  0.00000000E+00  0.00000000E+00  0.00000000E+00
  0.00000000E+00  0.00000000E+00  0.00000000E+00
  0.00000000E+00  0.00000000E+00  0.00000000E+00
  0.00000000E+00  0.00000000E+00  0.00000000E+00
  0.00000000E+00  0.00000000E+00  0.00000000E+00
  0.00000000E+00  0.00000000E+00  0.00000000E+00
  0.00000000E+00  0.00000000E+00  0.00000000E+00
  0.00000000E+00  0.00000000E+00  0.00000000E+00
  0.00000000E+00  0.00000000E+00  0.00000000E+00
  0.00000000E+00  0.00000000E+00  0.00000000E+00
  0.00000000E+00  0.00000000E+00  0.00000000E+00
  0.00000000E+00  0.00000000E+00  0.00000000E+00
  0.00000000E+00  0.00000000E+00  0.00000000E+00
  0.00000000E+00  0.00000000E+00  0.00000000E+00
