kk
 1.0000000000000000
     0.0000000000000000   10.9373336906932952   10.9373336906932952
    10.9373336906932952    0.0000000000000000   10.9373336906932952
    10.9373336906932952   10.9373336906932952    0.0000000000000000
 128
Direct
  0.9966206569056841  0.0022884146775062  0.0051611787457218
  0.2599190491532065  0.9866776945039839  0.0051483204468472
  0.4887110146512254  0.0114515476940924  0.9954173788011860
  0.7432977397014058  0.0001976232254309  0.0065431404654109
  0.9927660110777176  0.2509907967550779  0.0047558277107920
  0.2519323769006829  0.2513093610960805  0.0013335328920134
  0.5041411533596906  0.2488560627065797  0.9814081054325996
  0.7652929807705371  0.2519577589103170  0.9970410476624344
  0.0013953883058488  0.5021683473896028  0.9883035406415260
  0.2472429312876018  0.5068839894164872  0.0143409566703210
  0.4921814461452328  0.4902735995024547  0.0075345171142669
  0.7610239320165899  0.4903311206248944  0.0014828555021810
  0.9980664339786516  0.7652767858729335  0.9918320459998010
  0.2504119795510844  0.7524286970402382  0.9990657887346236
  0.4992550892841198  0.7496536860420903  0.9967383220408761
  0.7422806569109214  0.7537544972440864  0.9969942246915313
  0.0201962515579585  0.9912120397661397  0.2428857859557488
  0.2525031514553590  0.9946041753745122  0.2442543584504066
  0.4953367393242380  0.0072908635104622  0.2539561897693688
  0.7583317039479764  0.9947825518399863  0.2484878756174837
  0.9939663539137442  0.2518440197292818  0.2482949270592688
  0.2463745763302336  0.2409625578340568  0.2530483826672275
  0.4958109637480273  0.2566261395601938  0.2446073843888306
  0.7534083685903279  0.2465538254744649  0.2520295112762014
  0.0096212758792565  0.4940652926364923  0.2555781787258679
  0.2557088132773196  0.5059942943164787  0.2434518916147233
  0.4918028869631099  0.5074087167545804  0.2464056586347677
  0.7401013056624367  0.5115984779535925  0.2477554176433653
  0.9952336480569484  0.7436209270712846  0.2475513836827556
  0.2541595184653889  0.7484347031522682  0.2544819821397613
  0.5104446260339371  0.7449600681157824  0.2496295145136774
  0.7444186073900746  0.7595540370301481  0.2516816406002322
  0.0053051945844083  0.0065009855392080  0.4886059444602329
  0.2478156940330188  0.9940061157850636  0.4987815076994526
  0.5003715502529060  0.0008729465488993  0.5001806008378653
  0.7550480000350711  0.9968487329370315  0.5042057101729325
  0.9941206202194514  0.2455930188190364  0.4970621481465288
  0.2532761433275401  0.2527850563980032  0.4972627597280426
  0.4913970492687496  0.2462293020608969  0.5089154690854002
  0.7428198381021334  0.2670277280237192  0.4908461733605552
  0.9900643231810907  0.4983487770768603  0.5098333248904374
  0.2439113385452447  0.4954470919298889  0.5037793764473160
  0.4999849781962471  0.5008041666980972  0.5075100179217609
  0.7540139113011229  0.4886254429012771  0.5022498836826115
  0.0082033008809030  0.7569240716483173  0.4945353723365395
  0.2396568041049636  0.7573552644359888  0.5157017265793568
  0.5081025075901133  0.7275299360688563  0.5103911903839118
  0.7420065576194350  0.7482389168274542  0.5005307916900071
  0.9959666752320615  0.0028321797931814  0.7490113063335769
  0.2486819700254433  0.0074270336054786  0.7510094446576483
  0.5048563401560021  0.0059324758570864  0.7444941143702815
  0.7596523244865946  0.9947204439662060  0.7483428354249004
  0.9948317299339436  0.2514588262509211  0.7496646138929438
  0.2442854350571738  0.2576419438983789  0.7576990089984730
  0.5007775969984546  0.2511962133459491  0.7598412952539044
  0.7400040747523392  0.2521552080703879  0.7574465147386202
  0.9898813609704223  0.5147822869375367  0.7510823708321769
  0.2520798276780734  0.4980589982141282  0.7525515546091399
  0.5116915847207022  0.4873591877606715  0.7553270247139983
  0.7437665788931415  0.5008175961027816  0.7555510343302686
  0.0139031474342868  0.7422125691552566  0.7512568545861389
  0.2671478077582365  0.7529802871436190  0.7426934504917435
  0.5021519897798977  0.7469336293794542  0.7438884437188874
  0.7488867943833892  0.7436019851749224  0.7586961957920472
  0.0627467846958486  0.0629661882551928  0.0607283358553566
  0.3010422639594480  0.0706677734058418  0.0539042701971390
  0.5525069217239992  0.0698150753665118  0.0705169915076772
  0.8130749284308686  0.0740861742806305  0.0622793027260150
  0.0662242295571425  0.3163455483403409  0.0552770570241372
  0.3188138902361322  0.3099387356346083  0.0585752956155503
  0.5547646358874884  0.3053741247667759  0.0664863892689083
  0.8122760436816745  0.3053863505956419  0.0700629887071099
  0.0670668505787998  0.5586334170268952  0.0658449503079684
  0.3217921167648380  0.5753920995397366  0.0484234854000282
  0.5686379270487693  0.5612372354438400  0.0582543499278874
  0.8086641549261897  0.5687782718040206  0.0579828563873376
  0.0710371294034881  0.8134634976148023  0.0563529008133420
  0.3174576977063299  0.8056024776313611  0.0589365063294607
  0.5688162537983494  0.8007489852524885  0.0617238445769537
  0.8168101638177341  0.8103299824163346  0.0691870095035528
  0.0754727084014012  0.0578770687886811  0.3163281878339564
  0.3196835483194110  0.0724364837802362  0.3023955423929905
  0.5528874777999467  0.0706326714548921  0.3193782628034845
  0.8088023706293922  0.0688586611433070  0.3067660690374535
  0.0576407769333120  0.3079363684847748  0.3129190342746895
  0.3121294897661820  0.3038603867099975  0.3115644992477854
  0.5630242203209535  0.3174503501642988  0.3127011987638411
  0.8116115362157909  0.3202036056476505  0.3009029260023675
  0.0654984234040983  0.5548833215087920  0.3237168645686828
  0.2992900600079332  0.5712478626133004  0.3101334294394442
  0.5550204462895195  0.5683498321699896  0.3174268146147066
  0.8056181292196483  0.5633681370756527  0.3079149012967662
  0.0527724224316759  0.8089669348950730  0.3153556796547088
  0.3096219388675007  0.8117920450751499  0.3139688282915329
  0.5583490508986727  0.8111528696327116  0.3082508003583800
  0.8118998710525882  0.8208400526232882  0.3077709978061781
  0.0611923724140052  0.0689007637433703  0.5616142353826000
  0.3235478418652138  0.0648522241364884  0.5434521954620251
  0.5709529729370814  0.0614133509434052  0.5496278576831112
  0.8072800147699714  0.0641923621334329  0.5667271939327914
  0.0535602265760173  0.3193823738813554  0.5659254490577420
  0.3092025842836919  0.3012646055706185  0.5709023914207596
  0.5568149400120910  0.3153559114977312  0.5692055696388103
  0.8168952533151849  0.2982431210189135  0.5610558689524408
  0.0614771157602230  0.5497611771218253  0.5705502181449729
  0.3102776582485569  0.5595739780543523  0.5696819097020919
  0.5752088217251415  0.5476242420580494  0.5732476178811808
  0.7925204571927981  0.5732427798349191  0.5749984191825911
  0.0525614403515082  0.8308186980880579  0.5609534716890123
  0.3164669433845665  0.8097748239609852  0.5612685875129314
  0.5603069367953787  0.8076556324508615  0.5642904150147748
  0.8171513008200970  0.8113672956993274  0.5552462564887546
  0.0656664698759967  0.0605547439146214  0.8108916544878534
  0.3062604797699771  0.0622575236270350  0.8101338359624644
  0.5619009792456552  0.0575461823910465  0.8114559920134298
  0.8070730023689028  0.0490654147336473  0.8286802478125946
  0.0716233433802352  0.3163548263375567  0.8053647215151640
  0.3201582996142853  0.3124721574512814  0.8040351080032407
  0.5641148187555344  0.3181516172088569  0.8105620847333400
  0.8201351750708987  0.3167948499497323  0.8121507468064474
  0.0661684674731330  0.5647942937054253  0.8109456854009077
  0.3119051374797812  0.5606908913699090  0.8142815334040668
  0.5602674320686879  0.5536140723189288  0.8248342767403147
  0.8174774721126856  0.5607837808556605  0.8116874431759011
  0.0699987176007842  0.8096451288531558  0.8076755748454969
  0.3108249509848224  0.8116434373367658  0.8100741891331162
  0.5654412295199180  0.8013727278889792  0.8146395521558936
  0.7979441973468456  0.8157328176478561  0.8185795203733531
