kk                                      
   1.00000000000000     
     0.0000000000000000   10.9373336906932952   10.9373336906932952
    10.9373336906932952    0.0000000000000000   10.9373336906932952
    10.9373336906932952   10.9373336906932952    0.0000000000000000
   Si
   128
Direct
  0.0043027556320254  0.0117818802085026  0.0013502185802565
  0.2642726634983248  0.9946671343352520  0.9986880174484227
  0.5064984174607758  0.0052299638169160  0.9910418823478579
  0.7501121449539383  0.9966516619073857  0.0072149557252388
  0.0085172902834785  0.2497156772664511  0.9947211475444107
  0.2455188450703574  0.2439321417551810  0.0062274617094928
  0.5043087880121107  0.2592977420180418  0.9976597852091373
  0.7534886684398856  0.2445330960445844  0.9975665808017595
  0.0017062833325454  0.4988899236493225  0.9984092106617766
  0.2552852096329303  0.5080747021718039  0.9935288694831144
  0.4946663969596941  0.5108202434758695  0.0003537998500249
  0.7504840180707362  0.4986001958942481  0.0030077750817412
  0.9976189857091740  0.7607298561841702  0.9974355933080759
  0.2465890106788748  0.7678504021189170  0.9874006148618903
  0.5043494528814279  0.7489185375177669  0.9966551492004925
  0.7499431982329554  0.7482409572958773  0.9990484355268876
  0.0058070101124557  0.9981719145731773  0.2516565244140310
  0.2416706910973616  0.0108598959041899  0.2391705838712141
  0.5021378602275988  0.0038757665738842  0.2450137005332707
  0.7474116711289298  0.0022493192468502  0.2505675599830823
  0.0068078251440440  0.2457370438067912  0.2494157233834571
  0.2569578793977954  0.2516973498647275  0.2480933016761142
  0.4987013484753078  0.2492775346656586  0.2569725479342182
  0.7489862177756947  0.2474116308729819  0.2499535354328302
  0.9869365885573771  0.4940579208031721  0.2636115188707961
  0.2430389480056263  0.4876143505958979  0.2503586323167255
  0.5020449269227214  0.4958733912391580  0.2446847266514993
  0.7392062955058734  0.4964623906327930  0.2451639530748935
  0.9942765119616723  0.7439411250320376  0.2549091226090638
  0.2558660169278326  0.7529924470399862  0.2499064263512096
  0.4956114251551966  0.7504222777772753  0.2490273378318903
  0.7528726278701683  0.7494580335587955  0.2554752415351871
  0.0045844477026620  0.0085960329122230  0.5063997493551327
  0.2501180909059002  0.9958126180925362  0.5075528381021357
  0.5073351251495808  0.0000385509324587  0.4993458572533882
  0.7513533419949923  0.0003833559583413  0.4963262463081008
  0.0025611537150638  0.2487180701181586  0.4971680328964396
  0.2398597487764462  0.2487394031675407  0.5044136258758911
  0.4998927777306434  0.2620162390370382  0.4875896518430736
  0.7424984122696046  0.2547678298751279  0.4830265472768147
  0.9952452201458115  0.4973891240335888  0.5125489715099434
  0.2438561543256483  0.4999577610836070  0.5013549156258748
  0.4987064710289957  0.4992850333020087  0.4911638895414967
  0.7522400110501835  0.4971503855722688  0.4963798334182172
  0.9913654558554796  0.7534873911193003  0.4981852902255994
  0.2421303592058450  0.7629761573847986  0.5040419435045393
  0.4918894938763572  0.7410797006535077  0.5030113711598432
  0.7558030649552592  0.7463537396871018  0.4992366521134173
  0.9901046264141158  0.9987590018672989  0.7560692782179856
  0.2506338131056793  0.9980476873095370  0.7539503075061589
  0.5071419719867549  0.9981993675674445  0.7549486938082595
  0.7587092561316737  0.9916204267871294  0.7408842154190864
  0.0029955993462565  0.2683690116530641  0.7348140976219426
  0.2439592856247756  0.2565709517905432  0.7514511170454696
  0.4951538680690390  0.2551802251854625  0.7546877990245520
  0.7504071801718126  0.2506188989697620  0.7498293356874726
  0.0060877809495494  0.4924289963041204  0.7456875638319929
  0.2491430644016219  0.4996177540905578  0.7506753450410883
  0.4998496946276703  0.5003175925883241  0.7493750240287298
  0.7505467659520662  0.5085151553051759  0.7434074967440907
  0.9978377198465793  0.7474804083335442  0.7530204274180008
  0.2577372117116354  0.7533357228185267  0.7413407945161694
  0.4939801275479496  0.7523941015435938  0.7533684902515958
  0.7475999124230057  0.7568043120113046  0.7508908607876208
  0.0642020617349175  0.0646014557366854  0.0708145206572013
  0.3070919052930208  0.0678478464929455  0.0593580690818456
  0.5616662316152201  0.0514968531478459  0.0685486030454499
  0.8169447601399469  0.0625833699268838  0.0612716818226033
  0.0594366384082718  0.3173436658539828  0.0613329346472895
  0.3151193142857878  0.3066028880751475  0.0604824765837222
  0.5623242830534139  0.3079279918940117  0.0593152655731402
  0.8205015058008200  0.2991588394060329  0.0590805192357564
  0.0507713718237284  0.5777903705679037  0.0502903384031796
  0.3140084767589784  0.5570953499260938  0.0664824711561991
  0.5623177613780754  0.5697031553713501  0.0549696440198986
  0.8262466051994366  0.5607479780999753  0.0537990553540979
  0.0735856459596320  0.8221052211452005  0.0581113110415075
  0.2910833336101675  0.8231783602272600  0.0621208206391017
  0.5639050901410201  0.8111699080981722  0.0647991424182592
  0.8158517714580711  0.8121922305762581  0.0556698512821754
  0.0673505329369775  0.0671264416561570  0.3118408683033635
  0.3193213547533702  0.0611536123550138  0.2985065294196403
  0.5475783627852806  0.0516845008358757  0.3274974605787548
  0.8122922409031688  0.0665989344330953  0.3066852772512405
  0.0663987585098482  0.3167075156258292  0.3060572508425281
  0.3223350258960309  0.3039022571784642  0.3295462366110939
  0.5548009257403521  0.3126856668642617  0.3127779246743998
  0.8020569438527474  0.3186626471330882  0.3106959267113965
  0.0623178440417433  0.5460373959945244  0.3196588213353664
  0.3113724938625140  0.5574371883560687  0.3113782668714080
  0.5604705591899446  0.5474779066977575  0.3125859322585143
  0.8003100879663947  0.5724857172269324  0.3123174090357921
  0.0495605334389850  0.8009226302000698  0.3234024803790021
  0.3059897951601016  0.8289751276915425  0.3066262225091805
  0.5622374328672279  0.8103085603881013  0.3139987680193315
  0.8044280536588815  0.8072786349780259  0.3235818226960703
  0.0590704916638316  0.0703889719994990  0.5637965319554326
  0.3214894194322397  0.0581707969791481  0.5592196423827573
  0.5553233559308310  0.0707797024218380  0.5595553288263986
  0.8105091380742593  0.0606535123053860  0.5589623792582188
  0.0563647068793287  0.3264452328489327  0.5650560991890501
  0.3152431442571881  0.3092449277648655  0.5696721522664561
  0.5623335111620165  0.3010784898715571  0.5683443632959921
  0.8097830179937375  0.3144963707180040  0.5724270568837184
  0.0628093750207768  0.5750581464218314  0.5575267691885131
  0.3232801406033801  0.5550124989405560  0.5495085120924657
  0.5660239341975952  0.5634756747153418  0.5555453770766974
  0.8201799675200334  0.5591035953719796  0.5679359482532931
  0.0611474130834893  0.8123633675743065  0.5732251897972276
  0.3118770989141382  0.8165452013656491  0.5640727650098327
  0.5550647592318896  0.8057936005386779  0.5704144392355559
  0.8057935358601398  0.8158136934348619  0.5707489678057840
  0.0627512269157720  0.0664364201694099  0.8162215005979689
  0.3141730157948359  0.0586620473848285  0.8087074954338220
  0.5653037152015159  0.0625868117187522  0.8086515058535610
  0.8139024193955038  0.0655903477302857  0.8030200045226437
  0.0591001416189911  0.3142081916699553  0.8153570244354285
  0.3196970865808737  0.3103486372427327  0.8076398487722969
  0.5562781345201415  0.3178983230943047  0.8135846952377790
  0.8041172287279252  0.3155043095417724  0.8201004477490201
  0.0548473369695230  0.5705668170012572  0.8074503083556621
  0.3162837844493893  0.5586340144413313  0.8137549524736798
  0.5705806891775111  0.5586406064502540  0.8048418976509808
  0.8078113330209646  0.5687828740094787  0.8136326495090174
  0.0676009492365353  0.8181654465961827  0.8178106966133001
  0.3115546900955195  0.8095247736012396  0.8116892370613584
  0.5529557707929698  0.8171793488972412  0.8124739614324810
  0.8179909476122518  0.8069202102965463  0.8131964454009832
 
  0.00000000E+00  0.00000000E+00  0.00000000E+00
  0.00000000E+00  0.00000000E+00  0.00000000E+00
  0.00000000E+00  0.00000000E+00  0.00000000E+00
  0.00000000E+00  0.00000000E+00  0.00000000E+00
  0.00000000E+00  0.00000000E+00  0.00000000E+00
  0.00000000E+00  0.00000000E+00  0.00000000E+00
  0.00000000E+00  0.00000000E+00  0.00000000E+00
  0.00000000E+00  0.00000000E+00  0.00000000E+00
  0.00000000E+00  0.00000000E+00  0.00000000E+00
  0.00000000E+00  0.00000000E+00  0.00000000E+00
  0.00000000E+00  0.00000000E+00  0.00000000E+00
  0.00000000E+00  0.00000000E+00  0.00000000E+00
  0.00000000E+00  0.00000000E+00  0.00000000E+00
  0.00000000E+00  0.00000000E+00  0.00000000E+00
  0.00000000E+00  0.00000000E+00  0.00000000E+00
  0.00000000E+00  0.00000000E+00  0.00000000E+00
  0.00000000E+00  0.00000000E+00  0.00000000E+00
  0.00000000E+00  0.00000000E+00  0.00000000E+00
  0.00000000E+00  0.00000000E+00  0.00000000E+00
  0.00000000E+00  0.00000000E+00  0.00000000E+00
  0.00000000E+00  0.00000000E+00  0.00000000E+00
  0.00000000E+00  0.00000000E+00  0.00000000E+00
  0.00000000E+00  0.00000000E+00  0.00000000E+00
  0.00000000E+00  0.00000000E+00  0.00000000E+00
  0.00000000E+00  0.00000000E+00  0.00000000E+00
  0.00000000E+00  0.00000000E+00  0.00000000E+00
  0.00000000E+00  0.00000000E+00  0.00000000E+00
  0.00000000E+00  0.00000000E+00  0.00000000E+00
  0.00000000E+00  0.00000000E+00  0.00000000E+00
  0.00000000E+00  0.00000000E+00  0.00000000E+00
  0.00000000E+00  0.00000000E+00  0.00000000E+00
  0.00000000E+00  0.00000000E+00  0.00000000E+00
  0.00000000E+00  0.00000000E+00  0.00000000E+00
  0.00000000E+00  0.00000000E+00  0.00000000E+00
  0.00000000E+00  0.00000000E+00  0.00000000E+00
  0.00000000E+00  0.00000000E+00  0.00000000E+00
  0.00000000E+00  0.00000000E+00  0.00000000E+00
  0.00000000E+00  0.00000000E+00  0.00000000E+00
  0.00000000E+00  0.00000000E+00  0.00000000E+00
  0.00000000E+00  0.00000000E+00  0.00000000E+00
  0.00000000E+00  0.00000000E+00  0.00000000E+00
  0.00000000E+00  0.00000000E+00  0.00000000E+00
  0.00000000E+00  0.00000000E+00  0.00000000E+00
  0.00000000E+00  0.00000000E+00  0.00000000E+00
  0.00000000E+00  0.00000000E+00  0.00000000E+00
  0.00000000E+00  0.00000000E+00  0.00000000E+00
  0.00000000E+00  0.00000000E+00  0.00000000E+00
  0.00000000E+00  0.00000000E+00  0.00000000E+00
  0.00000000E+00  0.00000000E+00  0.00000000E+00
  0.00000000E+00  0.00000000E+00  0.00000000E+00
  0.00000000E+00  0.00000000E+00  0.00000000E+00
  0.00000000E+00  0.00000000E+00  0.00000000E+00
  0.00000000E+00  0.00000000E+00  0.00000000E+00
  0.00000000E+00  0.00000000E+00  0.00000000E+00
  0.00000000E+00  0.00000000E+00  0.00000000E+00
  0.00000000E+00  0.00000000E+00  0.00000000E+00
  0.00000000E+00  0.00000000E+00  0.00000000E+00
  0.00000000E+00  0.00000000E+00  0.00000000E+00
  0.00000000E+00  0.00000000E+00  0.00000000E+00
  0.00000000E+00  0.00000000E+00  0.00000000E+00
  0.00000000E+00  0.00000000E+00  0.00000000E+00
  0.00000000E+00  0.00000000E+00  0.00000000E+00
  0.00000000E+00  0.00000000E+00  0.00000000E+00
  0.00000000E+00  0.00000000E+00  0.00000000E+00
  0.00000000E+00  0.00000000E+00  0.00000000E+00
  0.00000000E+00  0.00000000E+00  0.00000000E+00
  0.00000000E+00  0.00000000E+00  0.00000000E+00
  0.00000000E+00  0.00000000E+00  0.00000000E+00
  0.00000000E+00  0.00000000E+00  0.00000000E+00
  0.00000000E+00  0.00000000E+00  0.00000000E+00
  0.00000000E+00  0.00000000E+00  0.00000000E+00
  0.00000000E+00  0.00000000E+00  0.00000000E+00
  0.00000000E+00  0.00000000E+00  0.00000000E+00
  0.00000000E+00  0.00000000E+00  0.00000000E+00
  0.00000000E+00  0.00000000E+00  0.00000000E+00
  0.00000000E+00  0.00000000E+00  0.00000000E+00
  0.00000000E+00  0.00000000E+00  0.00000000E+00
  0.00000000E+00  0.00000000E+00  0.00000000E+00
  0.00000000E+00  0.00000000E+00  0.00000000E+00
  0.00000000E+00  0.00000000E+00  0.00000000E+00
  0.00000000E+00  0.00000000E+00  0.00000000E+00
  0.00000000E+00  0.00000000E+00  0.00000000E+00
  0.00000000E+00  0.00000000E+00  0.00000000E+00
  0.00000000E+00  0.00000000E+00  0.00000000E+00
  0.00000000E+00  0.00000000E+00  0.00000000E+00
  0.00000000E+00  0.00000000E+00  0.00000000E+00
  0.00000000E+00  0.00000000E+00  0.00000000E+00
  0.00000000E+00  0.00000000E+00  0.00000000E+00
  0.00000000E+00  0.00000000E+00  0.00000000E+00
  0.00000000E+00  0.00000000E+00  0.00000000E+00
  0.00000000E+00  0.00000000E+00  0.00000000E+00
  0.00000000E+00  0.00000000E+00  0.00000000E+00
  0.00000000E+00  0.00000000E+00  0.00000000E+00
  0.00000000E+00  0.00000000E+00  0.00000000E+00
  0.00000000E+00  0.00000000E+00  0.00000000E+00
  0.00000000E+00  0.00000000E+00  0.00000000E+00
  0.00000000E+00  0.00000000E+00  0.00000000E+00
  0.00000000E+00  0.00000000E+00  0.00000000E+00
  0.00000000E+00  0.00000000E+00  0.00000000E+00
  0.00000000E+00  0.00000000E+00  0.00000000E+00
  0.00000000E+00  0.00000000E+00  0.00000000E+00
  0.00000000E+00  0.00000000E+00  0.00000000E+00
  0.00000000E+00  0.00000000E+00  0.00000000E+00
  0.00000000E+00  0.00000000E+00  0.00000000E+00
  0.00000000E+00  0.00000000E+00  0.00000000E+00
  0.00000000E+00  0.00000000E+00  0.00000000E+00
  0.00000000E+00  0.00000000E+00  0.00000000E+00
  0.00000000E+00  0.00000000E+00  0.00000000E+00
  0.00000000E+00  0.00000000E+00  0.00000000E+00
  0.00000000E+00  0.00000000E+00  0.00000000E+00
  0.00000000E+00  0.00000000E+00  0.00000000E+00
  0.00000000E+00  0.00000000E+00  0.00000000E+00
  0.00000000E+00  0.00000000E+00  0.00000000E+00
  0.00000000E+00  0.00000000E+00  0.00000000E+00
  0.00000000E+00  0.00000000E+00  0.00000000E+00
  0.00000000E+00  0.00000000E+00  0.00000000E+00
  0.00000000E+00  0.00000000E+00  0.00000000E+00
  0.00000000E+00  0.00000000E+00  0.00000000E+00
  0.00000000E+00  0.00000000E+00  0.00000000E+00
  0.00000000E+00  0.00000000E+00  0.00000000E+00
  0.00000000E+00  0.00000000E+00  0.00000000E+00
  0.00000000E+00  0.00000000E+00  0.00000000E+00
  0.00000000E+00  0.00000000E+00  0.00000000E+00
  0.00000000E+00  0.00000000E+00  0.00000000E+00
  0.00000000E+00  0.00000000E+00  0.00000000E+00
  0.00000000E+00  0.00000000E+00  0.00000000E+00
  0.00000000E+00  0.00000000E+00  0.00000000E+00
  0.00000000E+00  0.00000000E+00  0.00000000E+00
