kk
 1.0000000000000000
     0.0000000000000000   10.9373336906932952   10.9373336906932952
    10.9373336906932952    0.0000000000000000   10.9373336906932952
    10.9373336906932952   10.9373336906932952    0.0000000000000000
 128
Direct
  0.0043027556320225  0.0117818802085025  0.0013502185802584
  0.2642726634983276  0.9946671343352530  0.9986880174484257
  0.5064984174607727  0.0052299638169129  0.9910418823478592
  0.7501121449539384  0.9966516619073877  0.0072149557252421
  0.0085172902834797  0.2497156772664514  0.9947211475444139
  0.2455188450703587  0.2439321417551782  0.0062274617094949
  0.5043087880121089  0.2592977420180391  0.9976597852091352
  0.7534886684398849  0.2445330960445878  0.9975665808017576
  0.0017062833325453  0.4988899236493229  0.9984092106617767
  0.2552852096329329  0.5080747021718026  0.9935288694831170
  0.4946663969596929  0.5108202434758693  0.0003537998500235
  0.7504840180707389  0.4986001958942447  0.0030077750817404
  0.9976189857091736  0.7607298561841670  0.9974355933080731
  0.2465890106788776  0.7678504021189142  0.9874006148618888
  0.5043494528814254  0.7489185375177666  0.9966551492004927
  0.7499431982329529  0.7482409572958758  0.9990484355268859
  0.0058070101124537  0.9981719145731786  0.2516565244140292
  0.2416706910973618  0.0108598959041928  0.2391705838712123
  0.5021378602275965  0.0038757665738862  0.2450137005332693
  0.7474116711289275  0.0022493192468494  0.2505675599830805
  0.0068078251440411  0.2457370438067923  0.2494157233834548
  0.2569578793977946  0.2516973498647284  0.2480933016761109
  0.4987013484753107  0.2492775346656596  0.2569725479342156
  0.7489862177756956  0.2474116308729816  0.2499535354328323
  0.9869365885573769  0.4940579208031705  0.2636115188707956
  0.2430389480056237  0.4876143505958974  0.2503586323167274
  0.5020449269227202  0.4958733912391556  0.2446847266514997
  0.7392062955058716  0.4964623906327920  0.2451639530748967
  0.9942765119616754  0.7439411250320381  0.2549091226090611
  0.2558660169278317  0.7529924470399861  0.2499064263512061
  0.4956114251551961  0.7504222777772721  0.2490273378318931
  0.7528726278701694  0.7494580335587941  0.2554752415351898
  0.0045844477026624  0.0085960329122204  0.5063997493551359
  0.2501180909059026  0.9958126180925355  0.5075528381021390
  0.5073351251495806  0.0000385509324563  0.4993458572533863
  0.7513533419949905  0.0003833559583382  0.4963262463081022
  0.0025611537150640  0.2487180701181587  0.4971680328964423
  0.2398597487764486  0.2487394031675381  0.5044136258758926
  0.4998927777306432  0.2620162390370357  0.4875896518430711
  0.7424984122696022  0.2547678298751286  0.4830265472768179
  0.9952452201458143  0.4973891240335893  0.5125489715099422
  0.2438561543256477  0.4999577610836099  0.5013549156258721
  0.4987064710289968  0.4992850333020118  0.4911638895414961
  0.7522400110501815  0.4971503855722696  0.4963798334182144
  0.9913654558554796  0.7534873911193037  0.4981852902255982
  0.2421303592058476  0.7629761573848014  0.5040419435045427
  0.4918894938763577  0.7410797006535077  0.5030113711598432
  0.7558030649552587  0.7463537396871024  0.4992366521134203
  0.9901046264141123  0.9987590018672978  0.7560692782179884
  0.2506338131056770  0.9980476873095363  0.7539503075061600
  0.5071419719867534  0.9981993675674425  0.7549486938082584
  0.7587092561316756  0.9916204267871302  0.7408842154190830
  0.0029955993462583  0.2683690116530661  0.7348140976219436
  0.2439592856247753  0.2565709517905450  0.7514511170454693
  0.4951538680690393  0.2551802251854630  0.7546877990245540
  0.7504071801718116  0.2506188989697592  0.7498293356874750
  0.0060877809495481  0.4924289963041220  0.7456875638319933
  0.2491430644016192  0.4996177540905603  0.7506753450410866
  0.4998496946276732  0.5003175925883234  0.7493750240287295
  0.7505467659520635  0.5085151553051755  0.7434074967440932
  0.9978377198465778  0.7474804083335465  0.7530204274180040
  0.2577372117116353  0.7533357228185285  0.7413407945161687
  0.4939801275479491  0.7523941015435968  0.7533684902515957
  0.7475999124230077  0.7568043120113057  0.7508908607876181
  0.0642020617349180  0.0646014557366848  0.0708145206572031
  0.3070919052930181  0.0678478464929484  0.0593580690818470
  0.5616662316152181  0.0514968531478428  0.0685486030454502
  0.8169447601399494  0.0625833699268832  0.0612716818225999
  0.0594366384082729  0.3173436658539809  0.0613329346472898
  0.3151193142857876  0.3066028880751500  0.0604824765837191
  0.5623242830534160  0.3079279918940149  0.0593152655731428
  0.8205015058008182  0.2991588394060344  0.0590805192357579
  0.0507713718237273  0.5777903705679067  0.0502903384031764
  0.3140084767589802  0.5570953499260906  0.0664824711562003
  0.5623177613780778  0.5697031553713485  0.0549696440198987
  0.8262466051994340  0.5607479780999740  0.0537990553540953
  0.0735856459596311  0.8221052211451992  0.0581113110415092
  0.2910833336101709  0.8231783602272613  0.0621208206390996
  0.5639050901410212  0.8111699080981719  0.0647991424182592
  0.8158517714580730  0.8121922305762606  0.0556698512821765
  0.0673505329369793  0.0671264416561567  0.3118408683033649
  0.3193213547533682  0.0611536123550145  0.2985065294196383
  0.5475783627852835  0.0516845008358775  0.3274974605787536
  0.8122922409031673  0.0665989344330932  0.3066852772512432
  0.0663987585098476  0.3167075156258290  0.3060572508425285
  0.3223350258960322  0.3039022571784616  0.3295462366110916
  0.5548009257403554  0.3126856668642627  0.3127779246743997
  0.8020569438527506  0.3186626471330868  0.3106959267113955
  0.0623178440417411  0.5460373959945229  0.3196588213353668
  0.3113724938625118  0.5574371883560680  0.3113782668714108
  0.5604705591899466  0.5474779066977586  0.3125859322585135
  0.8003100879663926  0.5724857172269331  0.3123174090357893
  0.0495605334389839  0.8009226302000712  0.3234024803790039
  0.3059897951600993  0.8289751276915405  0.3066262225091800
  0.5622374328672263  0.8103085603881047  0.3139987680193320
  0.8044280536588784  0.8072786349780285  0.3235818226960734
  0.0590704916638335  0.0703889719994975  0.5637965319554313
  0.3214894194322368  0.0581707969791502  0.5592196423827606
  0.5553233559308343  0.0707797024218351  0.5595553288264011
  0.8105091380742590  0.0606535123053852  0.5589623792582178
  0.0563647068793275  0.3264452328489320  0.5650560991890479
  0.3152431442571888  0.3092449277648666  0.5696721522664588
  0.5623335111620191  0.3010784898715567  0.5683443632959897
  0.8097830179937370  0.3144963707180054  0.5724270568837216
  0.0628093750207758  0.5750581464218345  0.5575267691885104
  0.3232801406033810  0.5550124989405573  0.5495085120924638
  0.5660239341975963  0.5634756747153414  0.5555453770766939
  0.8201799675200331  0.5591035953719796  0.5679359482532954
  0.0611474130834924  0.8123633675743045  0.5732251897972309
  0.3118770989141404  0.8165452013656505  0.5640727650098342
  0.5550647592318867  0.8057936005386807  0.5704144392355558
  0.8057935358601397  0.8158136934348591  0.5707489678057822
  0.0627512269157693  0.0664364201694086  0.8162215005979657
  0.3141730157948394  0.0586620473848271  0.8087074954338205
  0.5653037152015179  0.0625868117187520  0.8086515058535579
  0.8139024193955064  0.0655903477302860  0.8030200045226439
  0.0591001416189942  0.3142081916699577  0.8153570244354253
  0.3196970865808753  0.3103486372427319  0.8076398487722939
  0.5562781345201401  0.3178983230943032  0.8135846952377779
  0.8041172287279233  0.3155043095417695  0.8201004477490229
  0.0548473369695224  0.5705668170012597  0.8074503083556587
  0.3162837844493914  0.5586340144413330  0.8137549524736769
  0.5705806891775136  0.5586406064502509  0.8048418976509785
  0.8078113330209643  0.5687828740094820  0.8136326495090171
  0.0676009492365379  0.8181654465961854  0.8178106966132973
  0.3115546900955187  0.8095247736012394  0.8116892370613615
  0.5529557707929684  0.8171793488972380  0.8124739614324782
  0.8179909476122501  0.8069202102965495  0.8131964454009859
