kk                                      
   1.00000000000000     
     0.0000000000000000   10.9373336906932952   10.9373336906932952
    10.9373336906932952    0.0000000000000000   10.9373336906932952
    10.9373336906932952   10.9373336906932952    0.0000000000000000
   Si
   128
Direct
  0.9912882416576423  0.0032287421911832  0.0062836267752573
  0.2477951234579194  0.0023659333577584  0.0054145418624856
  0.4917980308974421  0.9941280649884803  0.0098554583293904
  0.7488183713499978  0.9979707282545220  0.0037179040297346
  0.9962659387680546  0.2533105199520236  0.9914878952572295
  0.2452648167127265  0.2509765177128784  0.0043764232136354
  0.5156337080348976  0.2426238606511646  0.0016674591648140
  0.7385230320449594  0.2419991505786143  0.0077542599511986
  0.0035978364460263  0.5070236001896546  0.9937616063690555
  0.2424217671615381  0.5087675661025060  0.0013063115954566
  0.4918864738948656  0.5123320741436572  0.9984643778405839
  0.7494665163069811  0.4994930407731459  0.9968136834384751
  0.0013980624790406  0.7397324012004063  0.9988256751516786
  0.2616544440998325  0.7412991785204994  0.0012250089516783
  0.5015230761036520  0.7396862206467816  0.0113114434933621
  0.7437063886382020  0.7679956457408039  0.9893099284540625
  0.0098814462586034  0.9965198859195823  0.2521861872810405
  0.2497582787073398  0.9931182836838346  0.2455220858520093
  0.4907028735199006  0.0117243525680664  0.2500918381946136
  0.7455754725777410  0.9959637818135150  0.2519346369940436
  0.9946308711288623  0.2562250695839694  0.2467076397516337
  0.2494421277684040  0.2536123151888958  0.2441225419398236
  0.5004177777951355  0.2467000609609684  0.2538635110617946
  0.7456423343422571  0.2546258982752789  0.2471653617677774
  0.0095166264565378  0.4959062129487890  0.2360723071019990
  0.2421878493720371  0.4948530656958212  0.2435444834035891
  0.5108564268045939  0.4954631120764219  0.2453367643527500
  0.7552643909381587  0.4971905426598866  0.2520854295890302
  0.9923733795558434  0.7523550699340475  0.2596902025571879
  0.2434353532056051  0.7494923207225384  0.2506445270145505
  0.5058171791714088  0.7648728233594611  0.2414218807095665
  0.7461240426474944  0.7606219643040504  0.2516764356908752
  0.0019113125049017  0.0062897493607679  0.5054184159296469
  0.2412110341096607  0.9934350260574405  0.5079486551583230
  0.4985931469771074  0.9979290799008353  0.5007357772097905
  0.7482807582285957  0.0090181725379210  0.5015676942016398
  0.9950373327293249  0.2473341008540970  0.4983887477650057
  0.2432042390236475  0.2585812111507622  0.4972521687455185
  0.5029575436355671  0.2558949548142664  0.4998519818803757
  0.7484889120348868  0.2462905767632222  0.4935542721063086
  0.9921934280571065  0.5063026913773072  0.5056546943236384
  0.2556619366843123  0.4979684431471654  0.5023859322910198
  0.5089597135828114  0.4933214670862540  0.4959957709993148
  0.7469721938507305  0.4967039063052141  0.4999199797769691
  0.0128768882116930  0.7480383760152165  0.4978441769943558
  0.2511196640334603  0.7491464237665681  0.4969086427153186
  0.5032627108256023  0.7479408287723572  0.5033089771776886
  0.7440661273315570  0.7543187288182907  0.4896293588417606
  0.9993260882860753  0.9904554903572205  0.7556170174690706
  0.2392493510905283  0.0003112091520521  0.7461660345915959
  0.5045840104610448  0.9957086537286770  0.7556929958629937
  0.7429567957045649  0.0143248073642681  0.7478293602902397
  0.0014894004752719  0.2426409856702136  0.7575479793282511
  0.2536252296302877  0.2489866069637969  0.7605319514290088
  0.5203539558372725  0.2376992451875140  0.7461500892235335
  0.7386555290983168  0.2554432330482683  0.7415826334335307
  0.0018372864307921  0.4957742356919752  0.7619286154630629
  0.2507820732166479  0.4901581339230319  0.7457266612224416
  0.5004044288439431  0.4939408242665593  0.7541427075585858
  0.7520472003578362  0.5027594191878606  0.7447038644875192
  0.9920338233913171  0.7541216994305060  0.7427839835769277
  0.2445401501503994  0.7529808260210658  0.7521020014809139
  0.4997598020353990  0.7471635260230300  0.7520022127014983
  0.7518412555658074  0.7416292100478401  0.7507323554517242
  0.0713573216073726  0.0549422728918998  0.0712575902589663
  0.3143371912892761  0.0726548216450809  0.0565258600876035
  0.5634311594248018  0.0589992999404956  0.0714413755541301
  0.8121638543101639  0.0697028762613030  0.0607917909652400
  0.0578746234002594  0.2995500368637138  0.0758670799909282
  0.3102701028472836  0.3145212498763215  0.0677059655629577
  0.5595203481179922  0.3087215017786065  0.0720262000232452
  0.8254963807516944  0.3096655846469503  0.0583588564198507
  0.0584992967194609  0.5671394662133622  0.0641967662645797
  0.3104546915378847  0.5514343348707129  0.0598414289456883
  0.5698129230819191  0.5595160807707771  0.0593798503891279
  0.8034725896146639  0.5621888959696832  0.0713546236484959
  0.0634779302917252  0.8128091364474557  0.0560355516563646
  0.3217583635861132  0.8053519226866115  0.0638356428955476
  0.5654810456463863  0.8177215001127180  0.0529591014783364
  0.8078960122208585  0.8137601486347208  0.0709393161882659
  0.0661672580482673  0.0634614060844285  0.3229140740257819
  0.3101883070136608  0.0644049591991518  0.3070474426142269
  0.5630552541248335  0.0700399348106444  0.3043783266275923
  0.8233497927416309  0.0683018966591291  0.3032631007309519
  0.0668048066048286  0.3142076576832835  0.3048650920742162
  0.3163993145029167  0.3090574870352611  0.3006290441497796
  0.5600971290170378  0.3106029800212440  0.3150495923225378
  0.8065654516831131  0.3106025786019444  0.3136422582286897
  0.0529439511457497  0.5532663345393090  0.3244257879242838
  0.3120298497307346  0.5597899536571731  0.3037481776160433
  0.5624285096048212  0.5635926732973573  0.3035968049295050
  0.8230119522349497  0.5555623591679932  0.3169619239581820
  0.0599479551722979  0.8132313591573634  0.3111582758435247
  0.3146505312836680  0.8076300290588065  0.3128272356969006
  0.5623373147889907  0.8135294559958837  0.3144573402696693
  0.8132243326625002  0.8177600175911977  0.3074860352313564
  0.0583741512249460  0.0584086477618726  0.5635526485987086
  0.3098706966890745  0.0709266352525972  0.5638336092497553
  0.5648648981956299  0.0618921760206987  0.5594433232444871
  0.8229438009138192  0.0467194341991757  0.5686107735716917
  0.0503695080212765  0.3224263486102217  0.5783526510297392
  0.3109006349047476  0.3176806552692852  0.5665373886940728
  0.5637809611275983  0.3156669293126129  0.5625332274553116
  0.8028707428370652  0.3142982508674450  0.5620797436784386
  0.0574772612375725  0.5672649034441122  0.5618117491540531
  0.3015716256213850  0.5730247760437095  0.5563184087479129
  0.5612105908977583  0.5606000318091162  0.5668734961667781
  0.8158966126422627  0.5562752480438533  0.5622336341871659
  0.0583641659526251  0.8199576052526893  0.5639302070595633
  0.3189688099441668  0.8025291838890141  0.5688321419193656
  0.5628430105159339  0.8223738368230542  0.5551869308591151
  0.7991856278429736  0.8255595943156848  0.5557649121212833
  0.0551266429406638  0.0608252710827131  0.8191485169298147
  0.3026760246736941  0.0722098917669669  0.8132934899689843
  0.5682762346349719  0.0616202488385937  0.8040208275641874
  0.8010094954895379  0.0619587415380707  0.8149839715653684
  0.0523101967186079  0.3153865656258006  0.8168513488729516
  0.3172359231689157  0.3180599710971990  0.8061592603326631
  0.5627048618936072  0.3178155808929048  0.8068340953271971
  0.8233092999231530  0.3096856407793567  0.8170409455717831
  0.0579898602571092  0.5715631015499625  0.8105105560821499
  0.3209564266403575  0.5466014232646899  0.8169595730770638
  0.5576365834313251  0.5620651283557692  0.8141321247301931
  0.8115189165099181  0.5506050924306223  0.8202188918861566
  0.0566479028717382  0.8106881714973539  0.8163269425247108
  0.3134249301822507  0.8209802818633918  0.8104513272874243
  0.5693924811334767  0.8104640458785113  0.8046791353504119
  0.8097749454867227  0.8150684824348247  0.8074301935764581
 
  0.00000000E+00  0.00000000E+00  0.00000000E+00
  0.00000000E+00  0.00000000E+00  0.00000000E+00
  0.00000000E+00  0.00000000E+00  0.00000000E+00
  0.00000000E+00  0.00000000E+00  0.00000000E+00
  0.00000000E+00  0.00000000E+00  0.00000000E+00
  0.00000000E+00  0.00000000E+00  0.00000000E+00
  0.00000000E+00  0.00000000E+00  0.00000000E+00
  0.00000000E+00  0.00000000E+00  0.00000000E+00
  0.00000000E+00  0.00000000E+00  0.00000000E+00
  0.00000000E+00  0.00000000E+00  0.00000000E+00
  0.00000000E+00  0.00000000E+00  0.00000000E+00
  0.00000000E+00  0.00000000E+00  0.00000000E+00
  0.00000000E+00  0.00000000E+00  0.00000000E+00
  0.00000000E+00  0.00000000E+00  0.00000000E+00
  0.00000000E+00  0.00000000E+00  0.00000000E+00
  0.00000000E+00  0.00000000E+00  0.00000000E+00
  0.00000000E+00  0.00000000E+00  0.00000000E+00
  0.00000000E+00  0.00000000E+00  0.00000000E+00
  0.00000000E+00  0.00000000E+00  0.00000000E+00
  0.00000000E+00  0.00000000E+00  0.00000000E+00
  0.00000000E+00  0.00000000E+00  0.00000000E+00
  0.00000000E+00  0.00000000E+00  0.00000000E+00
  0.00000000E+00  0.00000000E+00  0.00000000E+00
  0.00000000E+00  0.00000000E+00  0.00000000E+00
  0.00000000E+00  0.00000000E+00  0.00000000E+00
  0.00000000E+00  0.00000000E+00  0.00000000E+00
  0.00000000E+00  0.00000000E+00  0.00000000E+00
  0.00000000E+00  0.00000000E+00  0.00000000E+00
  0.00000000E+00  0.00000000E+00  0.00000000E+00
  0.00000000E+00  0.00000000E+00  0.00000000E+00
  0.00000000E+00  0.00000000E+00  0.00000000E+00
  0.00000000E+00  0.00000000E+00  0.00000000E+00
  0.00000000E+00  0.00000000E+00  0.00000000E+00
  0.00000000E+00  0.00000000E+00  0.00000000E+00
  0.00000000E+00  0.00000000E+00  0.00000000E+00
  0.00000000E+00  0.00000000E+00  0.00000000E+00
  0.00000000E+00  0.00000000E+00  0.00000000E+00
  0.00000000E+00  0.00000000E+00  0.00000000E+00
  0.00000000E+00  0.00000000E+00  0.00000000E+00
  0.00000000E+00  0.00000000E+00  0.00000000E+00
  0.00000000E+00  0.00000000E+00  0.00000000E+00
  0.00000000E+00  0.00000000E+00  0.00000000E+00
  0.00000000E+00  0.00000000E+00  0.00000000E+00
  0.00000000E+00  0.00000000E+00  0.00000000E+00
  0.00000000E+00  0.00000000E+00  0.00000000E+00
  0.00000000E+00  0.00000000E+00  0.00000000E+00
  0.00000000E+00  0.00000000E+00  0.00000000E+00
  0.00000000E+00  0.00000000E+00  0.00000000E+00
  0.00000000E+00  0.00000000E+00  0.00000000E+00
  0.00000000E+00  0.00000000E+00  0.00000000E+00
  0.00000000E+00  0.00000000E+00  0.00000000E+00
  0.00000000E+00  0.00000000E+00  0.00000000E+00
  0.00000000E+00  0.00000000E+00  0.00000000E+00
  0.00000000E+00  0.00000000E+00  0.00000000E+00
  0.00000000E+00  0.00000000E+00  0.00000000E+00
  0.00000000E+00  0.00000000E+00  0.00000000E+00
  0.00000000E+00  0.00000000E+00  0.00000000E+00
  0.00000000E+00  0.00000000E+00  0.00000000E+00
  0.00000000E+00  0.00000000E+00  0.00000000E+00
  0.00000000E+00  0.00000000E+00  0.00000000E+00
  0.00000000E+00  0.00000000E+00  0.00000000E+00
  0.00000000E+00  0.00000000E+00  0.00000000E+00
  0.00000000E+00  0.00000000E+00  0.00000000E+00
  0.00000000E+00  0.00000000E+00  0.00000000E+00
  0.00000000E+00  0.00000000E+00  0.00000000E+00
  0.00000000E+00  0.00000000E+00  0.00000000E+00
  0.00000000E+00  0.00000000E+00  0.00000000E+00
  0.00000000E+00  0.00000000E+00  0.00000000E+00
  0.00000000E+00  0.00000000E+00  0.00000000E+00
  0.00000000E+00  0.00000000E+00  0.00000000E+00
  0.00000000E+00  0.00000000E+00  0.00000000E+00
  0.00000000E+00  0.00000000E+00  0.00000000E+00
  0.00000000E+00  0.00000000E+00  0.00000000E+00
  0.00000000E+00  0.00000000E+00  0.00000000E+00
  0.00000000E+00  0.00000000E+00  0.00000000E+00
  0.00000000E+00  0.00000000E+00  0.00000000E+00
  0.00000000E+00  0.00000000E+00  0.00000000E+00
  0.00000000E+00  0.00000000E+00  0.00000000E+00
  0.00000000E+00  0.00000000E+00  0.00000000E+00
  0.00000000E+00  0.00000000E+00  0.00000000E+00
  0.00000000E+00  0.00000000E+00  0.00000000E+00
  0.00000000E+00  0.00000000E+00  0.00000000E+00
  0.00000000E+00  0.00000000E+00  0.00000000E+00
  0.00000000E+00  0.00000000E+00  0.00000000E+00
  0.00000000E+00  0.00000000E+00  0.00000000E+00
  0.00000000E+00  0.00000000E+00  0.00000000E+00
  0.00000000E+00  0.00000000E+00  0.00000000E+00
  0.00000000E+00  0.00000000E+00  0.00000000E+00
  0.00000000E+00  0.00000000E+00  0.00000000E+00
  0.00000000E+00  0.00000000E+00  0.00000000E+00
  0.00000000E+00  0.00000000E+00  0.00000000E+00
  0.00000000E+00  0.00000000E+00  0.00000000E+00
  0.00000000E+00  0.00000000E+00  0.00000000E+00
  0.00000000E+00  0.00000000E+00  0.00000000E+00
  0.00000000E+00  0.00000000E+00  0.00000000E+00
  0.00000000E+00  0.00000000E+00  0.00000000E+00
  0.00000000E+00  0.00000000E+00  0.00000000E+00
  0.00000000E+00  0.00000000E+00  0.00000000E+00
  0.00000000E+00  0.00000000E+00  0.00000000E+00
  0.00000000E+00  0.00000000E+00  0.00000000E+00
  0.00000000E+00  0.00000000E+00  0.00000000E+00
  0.00000000E+00  0.00000000E+00  0.00000000E+00
  0.00000000E+00  0.00000000E+00  0.00000000E+00
  0.00000000E+00  0.00000000E+00  0.00000000E+00
  0.00000000E+00  0.00000000E+00  0.00000000E+00
  0.00000000E+00  0.00000000E+00  0.00000000E+00
  0.00000000E+00  0.00000000E+00  0.00000000E+00
  0.00000000E+00  0.00000000E+00  0.00000000E+00
  0.00000000E+00  0.00000000E+00  0.00000000E+00
  0.00000000E+00  0.00000000E+00  0.00000000E+00
  0.00000000E+00  0.00000000E+00  0.00000000E+00
  0.00000000E+00  0.00000000E+00  0.00000000E+00
  0.00000000E+00  0.00000000E+00  0.00000000E+00
  0.00000000E+00  0.00000000E+00  0.00000000E+00
  0.00000000E+00  0.00000000E+00  0.00000000E+00
  0.00000000E+00  0.00000000E+00  0.00000000E+00
  0.00000000E+00  0.00000000E+00  0.00000000E+00
  0.00000000E+00  0.00000000E+00  0.00000000E+00
  0.00000000E+00  0.00000000E+00  0.00000000E+00
  0.00000000E+00  0.00000000E+00  0.00000000E+00
  0.00000000E+00  0.00000000E+00  0.00000000E+00
  0.00000000E+00  0.00000000E+00  0.00000000E+00
  0.00000000E+00  0.00000000E+00  0.00000000E+00
  0.00000000E+00  0.00000000E+00  0.00000000E+00
  0.00000000E+00  0.00000000E+00  0.00000000E+00
  0.00000000E+00  0.00000000E+00  0.00000000E+00
  0.00000000E+00  0.00000000E+00  0.00000000E+00
  0.00000000E+00  0.00000000E+00  0.00000000E+00
