kk
 1.0000000000000000
     0.0000000000000000   10.9373336906932952   10.9373336906932952
    10.9373336906932952    0.0000000000000000   10.9373336906932952
    10.9373336906932952   10.9373336906932952    0.0000000000000000
 128
Direct
  0.9912882416576391  0.0032287421911854  0.0062836267752564
  0.2477951234579218  0.0023659333577606  0.0054145418624840
  0.4917980308974444  0.9941280649884801  0.0098554583293927
  0.7488183713499977  0.9979707282545188  0.0037179040297342
  0.9962659387680545  0.2533105199520203  0.9914878952572298
  0.2452648167127266  0.2509765177128796  0.0043764232136326
  0.5156337080348961  0.2426238606511658  0.0016674591648168
  0.7385230320449611  0.2419991505786166  0.0077542599512001
  0.0035978364460235  0.5070236001896534  0.9937616063690535
  0.2424217671615347  0.5087675661025026  0.0013063115954560
  0.4918864738948674  0.5123320741436561  0.9984643778405873
  0.7494665163069795  0.4994930407731445  0.9968136834384722
  0.0013980624790384  0.7397324012004066  0.9988256751516770
  0.2616544440998350  0.7412991785205026  0.0012250089516791
  0.5015230761036542  0.7396862206467836  0.0113114434933640
  0.7437063886381994  0.7679956457408005  0.9893099284540601
  0.0098814462586025  0.9965198859195843  0.2521861872810397
  0.2497582787073411  0.9931182836838366  0.2455220858520084
  0.4907028735198978  0.0117243525680662  0.2500918381946131
  0.7455754725777375  0.9959637818135160  0.2519346369940458
  0.9946308711288631  0.2562250695839696  0.2467076397516314
  0.2494421277684010  0.2536123151888990  0.2441225419398239
  0.5004177777951334  0.2467000609609714  0.2538635110617918
  0.7456423343422556  0.2546258982752796  0.2471653617677805
  0.0095166264565410  0.4959062129487855  0.2360723071019989
  0.2421878493720353  0.4948530656958224  0.2435444834035887
  0.5108564268045916  0.4954631120764244  0.2453367643527470
  0.7552643909381612  0.4971905426598881  0.2520854295890302
  0.9923733795558437  0.7523550699340508  0.2596902025571904
  0.2434353532056080  0.7494923207225355  0.2506445270145532
  0.5058171791714114  0.7648728233594599  0.2414218807095651
  0.7461240426474951  0.7606219643040499  0.2516764356908783
  0.0019113125049035  0.0062897493607685  0.5054184159296501
  0.2412110341096629  0.9934350260574401  0.5079486551583244
  0.4985931469771100  0.9979290799008376  0.5007357772097912
  0.7482807582285961  0.0090181725379195  0.5015676942016427
  0.9950373327293243  0.2473341008540952  0.4983887477650043
  0.2432042390236467  0.2585812111507599  0.4972521687455165
  0.5029575436355691  0.2558949548142666  0.4998519818803746
  0.7484889120348858  0.2462905767632194  0.4935542721063113
  0.9921934280571076  0.5063026913773099  0.5056546943236407
  0.2556619366843131  0.4979684431471644  0.5023859322910165
  0.5089597135828139  0.4933214670862549  0.4959957709993151
  0.7469721938507282  0.4967039063052169  0.4999199797769674
  0.0128768882116914  0.7480383760152166  0.4978441769943566
  0.2511196640334601  0.7491464237665654  0.4969086427153196
  0.5032627108255990  0.7479408287723547  0.5033089771776893
  0.7440661273315556  0.7543187288182894  0.4896293588417580
  0.9993260882860762  0.9904554903572174  0.7556170174690714
  0.2392493510905302  0.0003112091520540  0.7461660345915995
  0.5045840104610448  0.9957086537286762  0.7556929958629947
  0.7429567957045642  0.0143248073642671  0.7478293602902409
  0.0014894004752701  0.2426409856702107  0.7575479793282488
  0.2536252296302910  0.2489866069638001  0.7605319514290115
  0.5203539558372718  0.2376992451875115  0.7461500892235354
  0.7386555290983159  0.2554432330482672  0.7415826334335317
  0.0018372864307950  0.4957742356919725  0.7619286154630653
  0.2507820732166486  0.4901581339230310  0.7457266612224408
  0.5004044288439464  0.4939408242665560  0.7541427075585881
  0.7520472003578380  0.5027594191878575  0.7447038644875209
  0.9920338233913160  0.7541216994305089  0.7427839835769253
  0.2445401501504004  0.7529808260210668  0.7521020014809114
  0.4997598020354023  0.7471635260230308  0.7520022127014973
  0.7518412555658051  0.7416292100478418  0.7507323554517212
  0.0713573216073740  0.0549422728919011  0.0712575902589650
  0.3143371912892775  0.0726548216450781  0.0565258600876051
  0.5634311594248048  0.0589992999404935  0.0714413755541314
  0.8121638543101626  0.0697028762613004  0.0607917909652397
  0.0578746234002602  0.2995500368637173  0.0758670799909312
  0.3102701028472842  0.3145212498763235  0.0677059655629572
  0.5595203481179938  0.3087215017786032  0.0720262000232445
  0.8254963807516912  0.3096655846469496  0.0583588564198532
  0.0584992967194623  0.5671394662133599  0.0641967662645763
  0.3104546915378837  0.5514343348707108  0.0598414289456878
  0.5698129230819193  0.5595160807707791  0.0593798503891249
  0.8034725896146657  0.5621888959696805  0.0713546236484926
  0.0634779302917236  0.8128091364474553  0.0560355516563652
  0.3217583635861124  0.8053519226866147  0.0638356428955497
  0.5654810456463875  0.8177215001127197  0.0529591014783338
  0.8078960122208596  0.8137601486347202  0.0709393161882656
  0.0661672580482707  0.0634614060844293  0.3229140740257805
  0.3101883070136642  0.0644049591991553  0.3070474426142301
  0.5630552541248333  0.0700399348106414  0.3043783266275906
  0.8233497927416317  0.0683018966591285  0.3032631007309530
  0.0668048066048286  0.3142076576832855  0.3048650920742128
  0.3163993145029176  0.3090574870352624  0.3006290441497796
  0.5600971290170371  0.3106029800212474  0.3150495923225387
  0.8065654516831100  0.3106025786019416  0.3136422582286931
  0.0529439511457488  0.5532663345393058  0.3244257879242865
  0.3120298497307371  0.5597899536571741  0.3037481776160399
  0.5624285096048203  0.5635926732973570  0.3035968049295058
  0.8230119522349523  0.5555623591679909  0.3169619239581803
  0.0599479551722956  0.8132313591573608  0.3111582758435275
  0.3146505312836653  0.8076300290588037  0.3128272356968989
  0.5623373147889912  0.8135294559958839  0.3144573402696689
  0.8132243326625036  0.8177600175912003  0.3074860352313563
  0.0583741512249462  0.0584086477618699  0.5635526485987095
  0.3098706966890773  0.0709266352525954  0.5638336092497569
  0.5648648981956271  0.0618921760207018  0.5594433232444881
  0.8229438009138178  0.0467194341991728  0.5686107735716939
  0.0503695080212746  0.3224263486102238  0.5783526510297378
  0.3109006349047494  0.3176806552692854  0.5665373886940740
  0.5637809611276012  0.3156669293126162  0.5625332274553092
  0.8028707428370646  0.3142982508674421  0.5620797436784361
  0.0574772612375759  0.5672649034441088  0.5618117491540512
  0.3015716256213835  0.5730247760437095  0.5563184087479163
  0.5612105908977593  0.5606000318091172  0.5668734961667765
  0.8158966126422641  0.5562752480438509  0.5622336341871662
  0.0583641659526265  0.8199576052526920  0.5639302070595628
  0.3189688099441635  0.8025291838890125  0.5688321419193649
  0.5628430105159373  0.8223738368230558  0.5551869308591154
  0.7991856278429725  0.8255595943156865  0.5557649121212817
  0.0551266429406668  0.0608252710827120  0.8191485169298127
  0.3026760246736953  0.0722098917669641  0.8132934899689842
  0.5682762346349710  0.0616202488385918  0.8040208275641879
  0.8010094954895380  0.0619587415380693  0.8149839715653668
  0.0523101967186111  0.3153865656257995  0.8168513488729520
  0.3172359231689169  0.3180599710972020  0.8061592603326627
  0.5627048618936092  0.3178155808929058  0.8068340953271993
  0.8233092999231503  0.3096856407793551  0.8170409455717828
  0.0579898602571106  0.5715631015499599  0.8105105560821509
  0.3209564266403604  0.5466014232646884  0.8169595730770622
  0.5576365834313249  0.5620651283557677  0.8141321247301956
  0.8115189165099163  0.5506050924306223  0.8202188918861548
  0.0566479028717360  0.8106881714973574  0.8163269425247097
  0.3134249301822520  0.8209802818633897  0.8104513272874251
  0.5693924811334801  0.8104640458785095  0.8046791353504139
  0.8097749454867204  0.8150684824348264  0.8074301935764593
