kk                                      
   1.00000000000000     
     0.0000000000000000   10.9373336906932952   10.9373336906932952
    10.9373336906932952    0.0000000000000000   10.9373336906932952
    10.9373336906932952   10.9373336906932952    0.0000000000000000
   Si
   128
Direct
  0.9936821383579328  0.9985994656036112  0.0022536600703305
  0.2448848951491556  0.9965606440043544  0.9976978799217662
  0.5019073501011633  0.0087024131833147  0.9841712641242282
  0.7509675578876269  0.9931528017905151  0.0006408841307461
  0.9953808912946513  0.2638873786154221  0.9883570912843780
  0.2449295018119173  0.2544103713418551  0.0081726953694456
  0.5026196896088777  0.2576390162170625  0.9890451263900530
  0.7486631241010571  0.2523426700515969  0.0038014125537842
  0.0051431412345053  0.4934793650608640  0.0006555430945596
  0.2589467852761160  0.4869723401696078  0.9999236335934754
  0.5038258168586935  0.5034982271386070  0.0002857705191772
  0.7450843623905996  0.5114027567616120  0.9990882622099306
  0.9934307265482900  0.7573118173148288  0.9975698153517953
  0.2557423647584258  0.7490707722324998  0.9974214908267669
  0.5037377289930731  0.7491556834536084  0.0083183839145917
  0.7302960243130627  0.7544296325932152  0.0124788079888276
  0.9951151051450751  0.0013367342891897  0.2553362287739631
  0.2432626374335740  0.0004049804577164  0.2427049754093460
  0.4987400097032477  0.0000709707890323  0.2537021903201122
  0.7515194988153553  0.9940716699535770  0.2557625748379877
  0.0049647126330754  0.2549440364452096  0.2350281778085161
  0.2439303911628983  0.2516365505828801  0.2594122783951391
  0.5007959633224104  0.2453437636525990  0.2550712632884071
  0.7567726744589365  0.2379153249731871  0.2573804620714313
  0.9939464496807346  0.4985327315223742  0.2532463218647436
  0.2444464416167946  0.5017115802568810  0.2442818423857673
  0.5099755033045454  0.4963071227426070  0.2517446791950491
  0.7398476530817675  0.5170803204069330  0.2462289393572092
  0.9887427231454424  0.7691775442045454  0.2463025385292426
  0.2457452640857767  0.7468903532800795  0.2588791194642113
  0.5099434826787785  0.7530974505901469  0.2428022405345658
  0.7497147956962564  0.7492919001168303  0.2519207877434084
  0.9935882133081790  0.0004410255816722  0.5073551005039363
  0.2547289529017362  0.0028189218818397  0.4921531046820249
  0.5004492033082144  0.9986075433177959  0.5029138700047469
  0.7467512769001701  0.9957548846447182  0.5013580991818145
  0.9960465401941221  0.2459191080275929  0.4971304349230152
  0.2676431570413769  0.2443357121542604  0.4974297730681201
  0.4948360088010944  0.2617141458047456  0.4975164852793270
  0.7473698456136759  0.2528897496471600  0.5021307167976445
  0.9946939734631783  0.5108164132298327  0.4898432642346293
  0.2474279824427867  0.5002775902399748  0.5013900473000774
  0.4994982625921196  0.5037478813587484  0.5082632341394273
  0.7519821433386227  0.4888026008285919  0.5053537040541798
  0.0020501014313439  0.7505612679413147  0.4990089544462180
  0.2559317600833353  0.7521604249719616  0.4967350670572657
  0.5075319548962867  0.7527352911895591  0.4897358811679524
  0.7537264983453795  0.7565298501272295  0.4921634874826495
  0.0163562457380806  0.9973029248603709  0.7414381794738318
  0.2495923138980558  0.0133907689976667  0.7399709651981965
  0.5058257541460094  0.9991353322188559  0.7425387529529957
  0.7650157836105933  0.9943190250568392  0.7599929349198504
  0.0086681105801816  0.2585630468336433  0.7434774580745298
  0.2397198002484942  0.2654904600215460  0.7522703429803528
  0.5020502905200175  0.2492794482286982  0.7643113061152604
  0.7443686170802195  0.2524053210189621  0.7536286970679882
  0.0054022636176327  0.4998336293807029  0.7399217850156177
  0.2527166434308938  0.4891095993524388  0.7569875847337784
  0.4881936778948983  0.5075734956077582  0.7500590725291048
  0.7476707058887939  0.4966338696099726  0.7501929298150642
  0.9949991888690164  0.7504570408979063  0.7468252535478541
  0.2451984088193413  0.7526104790945922  0.7404619098730407
  0.5056316093242543  0.7575707526712208  0.7475052438351000
  0.7492056107545437  0.7542224127061274  0.7464499750937392
  0.0550737502356995  0.0708070815977564  0.0597906082848922
  0.3148646035229490  0.0743145168079451  0.0539785147009013
  0.5581849204820912  0.0617347653387057  0.0610641473144682
  0.8137718060966250  0.0596669266128060  0.0543897447339177
  0.0645507129035323  0.3106734749012432  0.0497735842671645
  0.3075051709225463  0.3104994839730040  0.0620930505333206
  0.5717479994016799  0.3048473426210947  0.0593229329136165
  0.8153091526680427  0.3191583435009449  0.0610856398673221
  0.0709858067691513  0.5596871125953129  0.0650521267562212
  0.3183048938667312  0.5613557778599656  0.0605152856650477
  0.5570500381536760  0.5777680359848958  0.0577252588460979
  0.8227261895866249  0.5685338522423606  0.0471143022235978
  0.0563801535298012  0.8225477385363575  0.0656241502758377
  0.3246204322720772  0.8009517765770866  0.0581452493114298
  0.5607194664251551  0.8176046986867078  0.0702962590647971
  0.8232494711983307  0.8249803283976576  0.0605201324770306
  0.0675314008837518  0.0556338021794431  0.3112664158857683
  0.3218294112591380  0.0587393970021211  0.2963118726333249
  0.5572266566151356  0.0770133685768855  0.3020959914111714
  0.8097557203277290  0.0642084301185335  0.3156276220322809
  0.0695981234969594  0.3171572087509702  0.3104423881149856
  0.3147949258031630  0.3048079767918637  0.3150389232004756
  0.5655030142436388  0.3079648602118326  0.3136600183783358
  0.8057591682807086  0.3195170112236809  0.3091316387023895
  0.0595440528782731  0.5602091679970158  0.3075071176776731
  0.3196504794202610  0.5509682802719453  0.3154885371319693
  0.5540620955388817  0.5686542877293590  0.3105276609942109
  0.8135238178066260  0.5618126924646347  0.3025821746242485
  0.0567296419611552  0.8086144281446863  0.3153295772907683
  0.3045474759935587  0.8106779794617651  0.3156410955589379
  0.5687526243548646  0.8048446135889549  0.3162276446817742
  0.8110372278657607  0.8216190461240558  0.3121095847325037
  0.0603658886046716  0.0578593845946855  0.5663104114753637
  0.3179887253517819  0.0591022643228811  0.5617947522117461
  0.5668740247500423  0.0590997965793107  0.5668655376156693
  0.8019204553341979  0.0766876763422673  0.5569324887611131
  0.0540547175254389  0.3147116739734059  0.5547110964470932
  0.3063757327621346  0.3244917781837984  0.5526218188386025
  0.5669839004997073  0.3126476687332627  0.5629473413849766
  0.8107357244817166  0.3094617425839417  0.5653777664329098
  0.0451082108402687  0.5612376905930034  0.5706613305301005
  0.3210870001559343  0.5530241729379810  0.5480540552854336
  0.5813472132688560  0.5466290775021534  0.5587799484233571
  0.8018096459900548  0.5581135208014913  0.5744121778960363
  0.0703967642584331  0.8122796256161706  0.5461099879192659
  0.3257182678557839  0.8149558080971104  0.5558853603738783
  0.5391367115122137  0.8094504842156951  0.5730990077107023
  0.8083397352543287  0.8102885872054060  0.5555828149195747
  0.0623621533117671  0.0693620954152294  0.8009150582465239
  0.3267679868457947  0.0578177878063357  0.8199480932212211
  0.5663325870645366  0.0647109422662027  0.8129643042744235
  0.8144509416946377  0.0659571886284809  0.8165442572179202
  0.0649581189932888  0.3126072952729970  0.8124513134089568
  0.3251138730878012  0.3143557403212398  0.8099972163704194
  0.5679561184037993  0.3099368778152893  0.8119524096666098
  0.8109351474281752  0.3080097952465195  0.8093816619203764
  0.0604712434832066  0.5676179056795689  0.8137138815326423
  0.3022996918453629  0.5659740016863921  0.8088709884046494
  0.5660533790247584  0.5651195999109575  0.8135544641200951
  0.8143697117703255  0.5642323254834380  0.8081393503936098
  0.0647837622355425  0.8227586093777006  0.7905269030453184
  0.3095277969622643  0.8161716346296828  0.8094428814756753
  0.5678164993052661  0.8165298968540782  0.8081454173488112
  0.8140607336108019  0.8200459960311335  0.8123440103643063
 
  0.00000000E+00  0.00000000E+00  0.00000000E+00
  0.00000000E+00  0.00000000E+00  0.00000000E+00
  0.00000000E+00  0.00000000E+00  0.00000000E+00
  0.00000000E+00  0.00000000E+00  0.00000000E+00
  0.00000000E+00  0.00000000E+00  0.00000000E+00
  0.00000000E+00  0.00000000E+00  0.00000000E+00
  0.00000000E+00  0.00000000E+00  0.00000000E+00
  0.00000000E+00  0.00000000E+00  0.00000000E+00
  0.00000000E+00  0.00000000E+00  0.00000000E+00
  0.00000000E+00  0.00000000E+00  0.00000000E+00
  0.00000000E+00  0.00000000E+00  0.00000000E+00
  0.00000000E+00  0.00000000E+00  0.00000000E+00
  0.00000000E+00  0.00000000E+00  0.00000000E+00
  0.00000000E+00  0.00000000E+00  0.00000000E+00
  0.00000000E+00  0.00000000E+00  0.00000000E+00
  0.00000000E+00  0.00000000E+00  0.00000000E+00
  0.00000000E+00  0.00000000E+00  0.00000000E+00
  0.00000000E+00  0.00000000E+00  0.00000000E+00
  0.00000000E+00  0.00000000E+00  0.00000000E+00
  0.00000000E+00  0.00000000E+00  0.00000000E+00
  0.00000000E+00  0.00000000E+00  0.00000000E+00
  0.00000000E+00  0.00000000E+00  0.00000000E+00
  0.00000000E+00  0.00000000E+00  0.00000000E+00
  0.00000000E+00  0.00000000E+00  0.00000000E+00
  0.00000000E+00  0.00000000E+00  0.00000000E+00
  0.00000000E+00  0.00000000E+00  0.00000000E+00
  0.00000000E+00  0.00000000E+00  0.00000000E+00
  0.00000000E+00  0.00000000E+00  0.00000000E+00
  0.00000000E+00  0.00000000E+00  0.00000000E+00
  0.00000000E+00  0.00000000E+00  0.00000000E+00
  0.00000000E+00  0.00000000E+00  0.00000000E+00
  0.00000000E+00  0.00000000E+00  0.00000000E+00
  0.00000000E+00  0.00000000E+00  0.00000000E+00
  0.00000000E+00  0.00000000E+00  0.00000000E+00
  0.00000000E+00  0.00000000E+00  0.00000000E+00
  0.00000000E+00  0.00000000E+00  0.00000000E+00
  0.00000000E+00  0.00000000E+00  0.00000000E+00
  0.00000000E+00  0.00000000E+00  0.00000000E+00
  0.00000000E+00  0.00000000E+00  0.00000000E+00
  0.00000000E+00  0.00000000E+00  0.00000000E+00
  0.00000000E+00  0.00000000E+00  0.00000000E+00
  0.00000000E+00  0.00000000E+00  0.00000000E+00
  0.00000000E+00  0.00000000E+00  0.00000000E+00
  0.00000000E+00  0.00000000E+00  0.00000000E+00
  0.00000000E+00  0.00000000E+00  0.00000000E+00
  0.00000000E+00  0.00000000E+00  0.00000000E+00
  0.00000000E+00  0.00000000E+00  0.00000000E+00
  0.00000000E+00  0.00000000E+00  0.00000000E+00
  0.00000000E+00  0.00000000E+00  0.00000000E+00
  0.00000000E+00  0.00000000E+00  0.00000000E+00
  0.00000000E+00  0.00000000E+00  0.00000000E+00
  0.00000000E+00  0.00000000E+00  0.00000000E+00
  0.00000000E+00  0.00000000E+00  0.00000000E+00
  0.00000000E+00  0.00000000E+00  0.00000000E+00
  0.00000000E+00  0.00000000E+00  0.00000000E+00
  0.00000000E+00  0.00000000E+00  0.00000000E+00
  0.00000000E+00  0.00000000E+00  0.00000000E+00
  0.00000000E+00  0.00000000E+00  0.00000000E+00
  0.00000000E+00  0.00000000E+00  0.00000000E+00
  0.00000000E+00  0.00000000E+00  0.00000000E+00
  0.00000000E+00  0.00000000E+00  0.00000000E+00
  0.00000000E+00  0.00000000E+00  0.00000000E+00
  0.00000000E+00  0.00000000E+00  0.00000000E+00
  0.00000000E+00  0.00000000E+00  0.00000000E+00
  0.00000000E+00  0.00000000E+00  0.00000000E+00
  0.00000000E+00  0.00000000E+00  0.00000000E+00
  0.00000000E+00  0.00000000E+00  0.00000000E+00
  0.00000000E+00  0.00000000E+00  0.00000000E+00
  0.00000000E+00  0.00000000E+00  0.00000000E+00
  0.00000000E+00  0.00000000E+00  0.00000000E+00
  0.00000000E+00  0.00000000E+00  0.00000000E+00
  0.00000000E+00  0.00000000E+00  0.00000000E+00
  0.00000000E+00  0.00000000E+00  0.00000000E+00
  0.00000000E+00  0.00000000E+00  0.00000000E+00
  0.00000000E+00  0.00000000E+00  0.00000000E+00
  0.00000000E+00  0.00000000E+00  0.00000000E+00
  0.00000000E+00  0.00000000E+00  0.00000000E+00
  0.00000000E+00  0.00000000E+00  0.00000000E+00
  0.00000000E+00  0.00000000E+00  0.00000000E+00
  0.00000000E+00  0.00000000E+00  0.00000000E+00
  0.00000000E+00  0.00000000E+00  0.00000000E+00
  0.00000000E+00  0.00000000E+00  0.00000000E+00
  0.00000000E+00  0.00000000E+00  0.00000000E+00
  0.00000000E+00  0.00000000E+00  0.00000000E+00
  0.00000000E+00  0.00000000E+00  0.00000000E+00
  0.00000000E+00  0.00000000E+00  0.00000000E+00
  0.00000000E+00  0.00000000E+00  0.00000000E+00
  0.00000000E+00  0.00000000E+00  0.00000000E+00
  0.00000000E+00  0.00000000E+00  0.00000000E+00
  0.00000000E+00  0.00000000E+00  0.00000000E+00
  0.00000000E+00  0.00000000E+00  0.00000000E+00
  0.00000000E+00  0.00000000E+00  0.00000000E+00
  0.00000000E+00  0.00000000E+00  0.00000000E+00
  0.00000000E+00  0.00000000E+00  0.00000000E+00
  0.00000000E+00  0.00000000E+00  0.00000000E+00
  0.00000000E+00  0.00000000E+00  0.00000000E+00
  0.00000000E+00  0.00000000E+00  0.00000000E+00
  0.00000000E+00  0.00000000E+00  0.00000000E+00
  0.00000000E+00  0.00000000E+00  0.00000000E+00
  0.00000000E+00  0.00000000E+00  0.00000000E+00
  0.00000000E+00  0.00000000E+00  0.00000000E+00
  0.00000000E+00  0.00000000E+00  0.00000000E+00
  0.00000000E+00  0.00000000E+00  0.00000000E+00
  0.00000000E+00  0.00000000E+00  0.00000000E+00
  0.00000000E+00  0.00000000E+00  0.00000000E+00
  0.00000000E+00  0.00000000E+00  0.00000000E+00
  0.00000000E+00  0.00000000E+00  0.00000000E+00
  0.00000000E+00  0.00000000E+00  0.00000000E+00
  0.00000000E+00  0.00000000E+00  0.00000000E+00
  0.00000000E+00  0.00000000E+00  0.00000000E+00
  0.00000000E+00  0.00000000E+00  0.00000000E+00
  0.00000000E+00  0.00000000E+00  0.00000000E+00
  0.00000000E+00  0.00000000E+00  0.00000000E+00
  0.00000000E+00  0.00000000E+00  0.00000000E+00
  0.00000000E+00  0.00000000E+00  0.00000000E+00
  0.00000000E+00  0.00000000E+00  0.00000000E+00
  0.00000000E+00  0.00000000E+00  0.00000000E+00
  0.00000000E+00  0.00000000E+00  0.00000000E+00
  0.00000000E+00  0.00000000E+00  0.00000000E+00
  0.00000000E+00  0.00000000E+00  0.00000000E+00
  0.00000000E+00  0.00000000E+00  0.00000000E+00
  0.00000000E+00  0.00000000E+00  0.00000000E+00
  0.00000000E+00  0.00000000E+00  0.00000000E+00
  0.00000000E+00  0.00000000E+00  0.00000000E+00
  0.00000000E+00  0.00000000E+00  0.00000000E+00
  0.00000000E+00  0.00000000E+00  0.00000000E+00
  0.00000000E+00  0.00000000E+00  0.00000000E+00
  0.00000000E+00  0.00000000E+00  0.00000000E+00
