kk
 1.0000000000000000
     0.0000000000000000   10.9373336906932952   10.9373336906932952
    10.9373336906932952    0.0000000000000000   10.9373336906932952
    10.9373336906932952   10.9373336906932952    0.0000000000000000
 128
Direct
  0.9936821383579326  0.9985994656036095  0.0022536600703315
  0.2448848951491550  0.9965606440043541  0.9976978799217668
  0.5019073501011612  0.0087024131833157  0.9841712641242248
  0.7509675578876255  0.9931528017905171  0.0006408841307492
  0.9953808912946510  0.2638873786154228  0.9883570912843755
  0.2449295018119180  0.2544103713418565  0.0081726953694461
  0.5026196896088793  0.2576390162170593  0.9890451263900540
  0.7486631241010578  0.2523426700515972  0.0038014125537865
  0.0051431412345082  0.4934793650608640  0.0006555430945608
  0.2589467852761139  0.4869723401696102  0.9999236335934771
  0.5038258168586944  0.5034982271386054  0.0002857705191787
  0.7450843623905961  0.5114027567616088  0.9990882622099276
  0.9934307265482889  0.7573118173148262  0.9975698153517956
  0.2557423647584255  0.7490707722324986  0.9974214908267693
  0.5037377289930761  0.7491556834536076  0.0083183839145920
  0.7302960243130607  0.7544296325932144  0.0124788079888268
  0.9951151051450756  0.0013367342891906  0.2553362287739638
  0.2432626374335717  0.0004049804577199  0.2427049754093450
  0.4987400097032468  0.0000709707890354  0.2537021903201115
  0.7515194988153523  0.9940716699535799  0.2557625748379845
  0.0049647126330782  0.2549440364452097  0.2350281778085185
  0.2439303911628969  0.2516365505828795  0.2594122783951375
  0.5007959633224078  0.2453437636525974  0.2550712632884056
  0.7567726744589344  0.2379153249731863  0.2573804620714303
  0.9939464496807353  0.4985327315223777  0.2532463218647454
  0.2444464416167945  0.5017115802568788  0.2442818423857641
  0.5099755033045438  0.4963071227426052  0.2517446791950472
  0.7398476530817667  0.5170803204069357  0.2462289393572062
  0.9887427231454450  0.7691775442045469  0.2463025385292453
  0.2457452640857793  0.7468903532800826  0.2588791194642137
  0.5099434826787796  0.7530974505901492  0.2428022405345664
  0.7497147956962558  0.7492919001168314  0.2519207877434074
  0.9935882133081801  0.0004410255816690  0.5073551005039347
  0.2547289529017375  0.0028189218818415  0.4921531046820219
  0.5004492033082113  0.9986075433177972  0.5029138700047445
  0.7467512769001704  0.9957548846447201  0.5013580991818114
  0.9960465401941242  0.2459191080275908  0.4971304349230120
  0.2676431570413758  0.2443357121542601  0.4974297730681198
  0.4948360088010927  0.2617141458047438  0.4975164852793276
  0.7473698456136736  0.2528897496471598  0.5021307167976428
  0.9946939734631794  0.5108164132298331  0.4898432642346322
  0.2474279824427845  0.5002775902399755  0.5013900473000769
  0.4994982625921180  0.5037478813587501  0.5082632341394266
  0.7519821433386202  0.4888026008285915  0.5053537040541792
  0.0020501014313418  0.7505612679413113  0.4990089544462202
  0.2559317600833348  0.7521604249719626  0.4967350670572624
  0.5075319548962882  0.7527352911895581  0.4897358811679557
  0.7537264983453796  0.7565298501272283  0.4921634874826492
  0.0163562457380782  0.9973029248603741  0.7414381794738331
  0.2495923138980559  0.0133907689976690  0.7399709651981987
  0.5058257541460081  0.9991353322188546  0.7425387529529922
  0.7650157836105919  0.9943190250568423  0.7599929349198484
  0.0086681105801842  0.2585630468336441  0.7434774580745309
  0.2397198002484918  0.2654904600215481  0.7522703429803554
  0.5020502905200197  0.2492794482287012  0.7643113061152639
  0.7443686170802163  0.2524053210189590  0.7536286970679862
  0.0054022636176307  0.4998336293807037  0.7399217850156145
  0.2527166434308938  0.4891095993524354  0.7569875847337780
  0.4881936778948950  0.5075734956077607  0.7500590725291050
  0.7476707058887924  0.4966338696099724  0.7501929298150674
  0.9949991888690168  0.7504570408979030  0.7468252535478539
  0.2451984088193385  0.7526104790945952  0.7404619098730408
  0.5056316093242561  0.7575707526712181  0.7475052438350983
  0.7492056107545416  0.7542224127061243  0.7464499750937390
  0.0550737502356966  0.0708070815977548  0.0597906082848894
  0.3148646035229518  0.0743145168079453  0.0539785147009045
  0.5581849204820928  0.0617347653387086  0.0610641473144668
  0.8137718060966227  0.0596669266128038  0.0543897447339164
  0.0645507129035323  0.3106734749012402  0.0497735842671641
  0.3075051709225493  0.3104994839730022  0.0620930505333181
  0.5717479994016815  0.3048473426210943  0.0593229329136142
  0.8153091526680457  0.3191583435009424  0.0610856398673254
  0.0709858067691532  0.5596871125953161  0.0650521267562220
  0.3183048938667326  0.5613557778599635  0.0605152856650499
  0.5570500381536785  0.5777680359848940  0.0577252588460956
  0.8227261895866282  0.5685338522423601  0.0471143022235960
  0.0563801535298003  0.8225477385363544  0.0656241502758360
  0.3246204322720802  0.8009517765770892  0.0581452493114300
  0.5607194664251529  0.8176046986867100  0.0702962590647943
  0.8232494711983320  0.8249803283976590  0.0605201324770310
  0.0675314008837517  0.0556338021794434  0.3112664158857655
  0.3218294112591357  0.0587393970021228  0.2963118726333217
  0.5572266566151323  0.0770133685768825  0.3020959914111748
  0.8097557203277275  0.0642084301185327  0.3156276220322788
  0.0695981234969618  0.3171572087509699  0.3104423881149889
  0.3147949258031613  0.3048079767918632  0.3150389232004762
  0.5655030142436357  0.3079648602118338  0.3136600183783378
  0.8057591682807110  0.3195170112236833  0.3091316387023868
  0.0595440528782745  0.5602091679970190  0.3075071176776718
  0.3196504794202589  0.5509682802719489  0.3154885371319717
  0.5540620955388802  0.5686542877293586  0.3105276609942110
  0.8135238178066280  0.5618126924646375  0.3025821746242513
  0.0567296419611570  0.8086144281446880  0.3153295772907690
  0.3045474759935616  0.8106779794617663  0.3156410955589380
  0.5687526243548677  0.8048446135889564  0.3162276446817737
  0.8110372278657626  0.8216190461240571  0.3121095847325058
  0.0603658886046710  0.0578593845946855  0.5663104114753604
  0.3179887253517839  0.0591022643228819  0.5617947522117436
  0.5668740247500422  0.0590997965793125  0.5668655376156695
  0.8019204553341950  0.0766876763422674  0.5569324887611116
  0.0540547175254403  0.3147116739734044  0.5547110964470913
  0.3063757327621366  0.3244917781837974  0.5526218188386043
  0.5669839004997105  0.3126476687332624  0.5629473413849765
  0.8107357244817132  0.3094617425839450  0.5653777664329107
  0.0451082108402683  0.5612376905930022  0.5706613305301012
  0.3210870001559362  0.5530241729379802  0.5480540552854308
  0.5813472132688542  0.5466290775021563  0.5587799484233587
  0.8018096459900542  0.5581135208014902  0.5744121778960348
  0.0703967642584321  0.8122796256161705  0.5461099879192632
  0.3257182678557814  0.8149558080971095  0.5558853603738750
  0.5391367115122134  0.8094504842156969  0.5730990077107029
  0.8083397352543299  0.8102885872054031  0.5555828149195717
  0.0623621533117679  0.0693620954152259  0.8009150582465261
  0.3267679868457982  0.0578177878063328  0.8199480932212183
  0.5663325870645397  0.0647109422662002  0.8129643042744251
  0.8144509416946357  0.0659571886284842  0.8165442572179206
  0.0649581189932883  0.3126072952729995  0.8124513134089539
  0.3251138730877981  0.3143557403212419  0.8099972163704203
  0.5679561184037959  0.3099368778152908  0.8119524096666090
  0.8109351474281785  0.3080097952465214  0.8093816619203794
  0.0604712434832069  0.5676179056795665  0.8137138815326393
  0.3022996918453619  0.5659740016863891  0.8088709884046527
  0.5660533790247587  0.5651195999109561  0.8135544641200971
  0.8143697117703260  0.5642323254834377  0.8081393503936110
  0.0647837622355445  0.8227586093777006  0.7905269030453201
  0.3095277969622617  0.8161716346296801  0.8094428814756734
  0.5678164993052665  0.8165298968540804  0.8081454173488142
  0.8140607336108003  0.8200459960311369  0.8123440103643029
