kk                                      
   1.00000000000000     
     0.0000000000000000   10.9373336906932952   10.9373336906932952
    10.9373336906932952    0.0000000000000000   10.9373336906932952
    10.9373336906932952   10.9373336906932952    0.0000000000000000
   Si
   128
Direct
  0.0012482799882463  0.9867826305246368  0.0079049905343282
  0.2501177479636567  0.9908463031055561  0.0062185921750739
  0.5078759871207126  0.9939769743999278  0.0010873301530196
  0.7489328472607255  0.0056519232594638  0.9995126416677209
  0.0063719365341015  0.2490783697958605  0.9939880162378074
  0.2460179367122777  0.2471100099750387  0.9948345800893748
  0.4960556958094813  0.2519790675889979  0.0043204270758821
  0.7448219402798131  0.2561975942963244  0.0003722955137917
  0.9943263153106656  0.5011194244376895  0.0019351393729323
  0.2418608138471114  0.5044700087214338  0.0013649869830914
  0.5002063373675014  0.4932382877600716  0.0051133539315771
  0.7499818734260657  0.5098909854992399  0.9958524302455061
  0.0079743948470821  0.7416009235791421  0.9924279086541290
  0.2456242337022161  0.7479903039665885  0.0070970600705706
  0.5027646477205607  0.7515744893735743  0.9998291973700120
  0.7467179732534603  0.7547994349567588  0.9961041499475343
  0.9925452760527520  0.9983420559617500  0.2446482410450557
  0.2586629136683030  0.9932508335714800  0.2548860190354887
  0.4998924794833144  0.9994912753602563  0.2489292059912742
  0.7522903374643803  0.0026781182767550  0.2463891012336674
  0.0072628362238021  0.2485561398368574  0.2499036421128551
  0.2556206601015489  0.2449628881115160  0.2511823039332981
  0.5008096157569355  0.2509516166019381  0.2510583580758592
  0.7499282966158347  0.2439021160643478  0.2469811681570562
  0.0036223296600113  0.5118643142992312  0.2407662920781490
  0.2518609442830382  0.4956765311025961  0.2353039116156097
  0.5061723811590753  0.4883120480593561  0.2685961431616448
  0.7446767477626395  0.5066987195614416  0.2443256520748207
  0.9948982265598971  0.7454422777799650  0.2570848323569095
  0.2408550626979533  0.7505425960936520  0.2499459062385796
  0.5061112967579220  0.7496064959745894  0.2449100487485438
  0.7454074428554449  0.7496864887897488  0.2448364069172086
  0.0010184968845763  0.0100103403399956  0.5007667526564532
  0.2586052617907271  0.9933280226672991  0.5009740720015898
  0.4962789241139376  0.0028779426747789  0.5032316145689606
  0.7503857641365457  0.0109228843111850  0.5088978994053406
  0.9997230559973787  0.2537069724535499  0.4981651835301832
  0.2655044785063225  0.2453905901127271  0.4950689632294925
  0.5065525450439665  0.2457417382056803  0.4996481448401440
  0.7511115605333316  0.2408028091266203  0.5015688618460246
  0.9988964809949792  0.5109623222279893  0.4876199323860675
  0.2436194429949268  0.4996086477149291  0.5040312121601502
  0.5031413826886535  0.4991037071732407  0.4990295161406166
  0.7481350609035005  0.4815486067210415  0.5054156676212855
  0.0090213016033971  0.7428749869167817  0.5021361475314379
  0.2499342601770849  0.7458980437959895  0.4997509188029525
  0.4999758343978442  0.7616099806872754  0.4891804242470172
  0.7558454135573101  0.7347271841012670  0.4967710991819629
  0.9972663796356187  0.0009275747062674  0.7494701001875512
  0.2556397528524386  0.9977529881746250  0.7478288254871330
  0.5091625714535013  0.9991038286224878  0.7402237313530478
  0.7478548964315550  0.9948917197633094  0.7655298717800321
  0.9930407239291341  0.2537476899972191  0.7599569580225563
  0.2479310728345325  0.2502086444293923  0.7525526012205930
  0.4917485771441363  0.2442588413529592  0.7541506349417233
  0.7531210591603781  0.2548856568572901  0.7482161847213007
  0.0016016398476992  0.5037704474682414  0.7520098132022994
  0.2509036182582420  0.4999732952904168  0.7478068819121404
  0.5021375778842696  0.5093271551748657  0.7354168170300284
  0.7546579659174242  0.4939753868957908  0.7478297633353677
  0.9944870686013090  0.7518374683529530  0.7547344056487404
  0.2522367804705254  0.7339376936703133  0.7516040546858704
  0.4938873477716683  0.7518153424794960  0.7567217594207918
  0.7566470587187126  0.7520494158989237  0.7470683970138907
  0.0699461100947829  0.0676784055132700  0.0611616785080855
  0.3208681956543558  0.0636731410990521  0.0496175874081715
  0.5578636919914146  0.0772939217014681  0.0556135257290151
  0.8107945756230350  0.0629246962113683  0.0597521985242437
  0.0567868734215935  0.3152927930583758  0.0692909073378871
  0.3150531288843226  0.3102972179342700  0.0752997999386764
  0.5712944203900108  0.3047969891194384  0.0608848744235644
  0.8301970606233837  0.3050500332363626  0.0541213315575604
  0.0596528947335813  0.5622890963715506  0.0540735469055633
  0.3102718355116210  0.5560552108270045  0.0624506610152764
  0.5626822741944082  0.5690358756447012  0.0569331726475397
  0.8035774945962117  0.5718458469291221  0.0598792910126491
  0.0599465587538006  0.8090524511957113  0.0630676483350214
  0.3193737084256085  0.8072779392947567  0.0609093088646162
  0.5762862175121413  0.8171023301011431  0.0630974786392855
  0.8138225872086906  0.8172744063839517  0.0603500167385107
  0.0568471639830790  0.0642875978231103  0.3151992567095334
  0.3012900629505779  0.0635998322992677  0.3159031943914243
  0.5594597432158892  0.0671356360018436  0.3208391738903629
  0.8141859385314802  0.0697028500920922  0.3142698309888416
  0.0585005918603088  0.3051258755566622  0.3213371680613193
  0.3188391211091215  0.3185926865909821  0.3030436843931810
  0.5630394800207128  0.3108806624921314  0.3177587089058349
  0.8098674494370712  0.3215780654759683  0.3127062091891801
  0.0727668150306471  0.5548294890543914  0.3117162398959010
  0.3150249415280229  0.5548078049099701  0.3062006992013977
  0.5499433032722081  0.5766009941746546  0.3073165667156914
  0.8296171986274956  0.5606936982296276  0.2980675257178902
  0.0585063937184458  0.8068334759864726  0.3167102746309425
  0.3090892052364111  0.8101873517070572  0.3117502717520182
  0.5651689315565633  0.8143453768741935  0.3105589085383684
  0.8116348790361556  0.8183770251965257  0.3107226155241207
  0.0727694647651944  0.0502551935013855  0.5689997838870013
  0.3087112414282842  0.0728144272509326  0.5616180427877353
  0.5601709024591273  0.0640976084740572  0.5619597620593737
  0.8134311904231026  0.0741727306665965  0.5499622273639631
  0.0533352966400713  0.3072608942265092  0.5713920244893558
  0.3326419330644654  0.3063179465048762  0.5551218042649424
  0.5644369387496866  0.3143431629019204  0.5659730803339187
  0.8240409321683941  0.3057958646943746  0.5620814036701134
  0.0614379274573835  0.5668603256786540  0.5649383857338464
  0.3092291181089237  0.5648233277067973  0.5637538373199078
  0.5627678578224078  0.5712088726494642  0.5481248683883138
  0.8160370968896942  0.5612596609483091  0.5683965984519332
  0.0417772221847770  0.8224979131924357  0.5670614040319180
  0.3185063208035288  0.8089976598869839  0.5637507714067667
  0.5489406962469161  0.8215084701982818  0.5718479497436277
  0.8008981988508879  0.8256816105774476  0.5536461192426003
  0.0615694122114903  0.0685836726018678  0.8112174686368547
  0.3146298524237423  0.0647046849110353  0.8046580233690150
  0.5588782582517666  0.0570154144597552  0.8251471229933216
  0.8170143468294313  0.0562500072223955  0.8175167613724312
  0.0616961341183426  0.3125517211629472  0.8145568780041614
  0.2919514896924369  0.3293302008773296  0.8175311187430481
  0.5577686769499621  0.3166235757986513  0.8037542311223760
  0.8139006820864836  0.3127398547506743  0.8143830191338637
  0.0593282010738818  0.5682162627313332  0.8188204928395706
  0.3111993712435890  0.5517023906843548  0.8115005240505369
  0.5609284952929769  0.5712807656277619  0.8074704464388418
  0.8255765335337273  0.5661739531533811  0.8097162757933276
  0.0605582435178604  0.8174229596612932  0.8110582536824040
  0.3146680854539383  0.8113501433932200  0.8018777287149845
  0.5630072696082706  0.8096694545429699  0.8135698851671691
  0.8143474410483336  0.8050984327885544  0.8180361930791662
 
  0.00000000E+00  0.00000000E+00  0.00000000E+00
  0.00000000E+00  0.00000000E+00  0.00000000E+00
  0.00000000E+00  0.00000000E+00  0.00000000E+00
  0.00000000E+00  0.00000000E+00  0.00000000E+00
  0.00000000E+00  0.00000000E+00  0.00000000E+00
  0.00000000E+00  0.00000000E+00  0.00000000E+00
  0.00000000E+00  0.00000000E+00  0.00000000E+00
  0.00000000E+00  0.00000000E+00  0.00000000E+00
  0.00000000E+00  0.00000000E+00  0.00000000E+00
  0.00000000E+00  0.00000000E+00  0.00000000E+00
  0.00000000E+00  0.00000000E+00  0.00000000E+00
  0.00000000E+00  0.00000000E+00  0.00000000E+00
  0.00000000E+00  0.00000000E+00  0.00000000E+00
  0.00000000E+00  0.00000000E+00  0.00000000E+00
  0.00000000E+00  0.00000000E+00  0.00000000E+00
  0.00000000E+00  0.00000000E+00  0.00000000E+00
  0.00000000E+00  0.00000000E+00  0.00000000E+00
  0.00000000E+00  0.00000000E+00  0.00000000E+00
  0.00000000E+00  0.00000000E+00  0.00000000E+00
  0.00000000E+00  0.00000000E+00  0.00000000E+00
  0.00000000E+00  0.00000000E+00  0.00000000E+00
  0.00000000E+00  0.00000000E+00  0.00000000E+00
  0.00000000E+00  0.00000000E+00  0.00000000E+00
  0.00000000E+00  0.00000000E+00  0.00000000E+00
  0.00000000E+00  0.00000000E+00  0.00000000E+00
  0.00000000E+00  0.00000000E+00  0.00000000E+00
  0.00000000E+00  0.00000000E+00  0.00000000E+00
  0.00000000E+00  0.00000000E+00  0.00000000E+00
  0.00000000E+00  0.00000000E+00  0.00000000E+00
  0.00000000E+00  0.00000000E+00  0.00000000E+00
  0.00000000E+00  0.00000000E+00  0.00000000E+00
  0.00000000E+00  0.00000000E+00  0.00000000E+00
  0.00000000E+00  0.00000000E+00  0.00000000E+00
  0.00000000E+00  0.00000000E+00  0.00000000E+00
  0.00000000E+00  0.00000000E+00  0.00000000E+00
  0.00000000E+00  0.00000000E+00  0.00000000E+00
  0.00000000E+00  0.00000000E+00  0.00000000E+00
  0.00000000E+00  0.00000000E+00  0.00000000E+00
  0.00000000E+00  0.00000000E+00  0.00000000E+00
  0.00000000E+00  0.00000000E+00  0.00000000E+00
  0.00000000E+00  0.00000000E+00  0.00000000E+00
  0.00000000E+00  0.00000000E+00  0.00000000E+00
  0.00000000E+00  0.00000000E+00  0.00000000E+00
  0.00000000E+00  0.00000000E+00  0.00000000E+00
  0.00000000E+00  0.00000000E+00  0.00000000E+00
  0.00000000E+00  0.00000000E+00  0.00000000E+00
  0.00000000E+00  0.00000000E+00  0.00000000E+00
  0.00000000E+00  0.00000000E+00  0.00000000E+00
  0.00000000E+00  0.00000000E+00  0.00000000E+00
  0.00000000E+00  0.00000000E+00  0.00000000E+00
  0.00000000E+00  0.00000000E+00  0.00000000E+00
  0.00000000E+00  0.00000000E+00  0.00000000E+00
  0.00000000E+00  0.00000000E+00  0.00000000E+00
  0.00000000E+00  0.00000000E+00  0.00000000E+00
  0.00000000E+00  0.00000000E+00  0.00000000E+00
  0.00000000E+00  0.00000000E+00  0.00000000E+00
  0.00000000E+00  0.00000000E+00  0.00000000E+00
  0.00000000E+00  0.00000000E+00  0.00000000E+00
  0.00000000E+00  0.00000000E+00  0.00000000E+00
  0.00000000E+00  0.00000000E+00  0.00000000E+00
  0.00000000E+00  0.00000000E+00  0.00000000E+00
  0.00000000E+00  0.00000000E+00  0.00000000E+00
  0.00000000E+00  0.00000000E+00  0.00000000E+00
  0.00000000E+00  0.00000000E+00  0.00000000E+00
  0.00000000E+00  0.00000000E+00  0.00000000E+00
  0.00000000E+00  0.00000000E+00  0.00000000E+00
  0.00000000E+00  0.00000000E+00  0.00000000E+00
  0.00000000E+00  0.00000000E+00  0.00000000E+00
  0.00000000E+00  0.00000000E+00  0.00000000E+00
  0.00000000E+00  0.00000000E+00  0.00000000E+00
  0.00000000E+00  0.00000000E+00  0.00000000E+00
  0.00000000E+00  0.00000000E+00  0.00000000E+00
  0.00000000E+00  0.00000000E+00  0.00000000E+00
  0.00000000E+00  0.00000000E+00  0.00000000E+00
  0.00000000E+00  0.00000000E+00  0.00000000E+00
  0.00000000E+00  0.00000000E+00  0.00000000E+00
  0.00000000E+00  0.00000000E+00  0.00000000E+00
  0.00000000E+00  0.00000000E+00  0.00000000E+00
  0.00000000E+00  0.00000000E+00  0.00000000E+00
  0.00000000E+00  0.00000000E+00  0.00000000E+00
  0.00000000E+00  0.00000000E+00  0.00000000E+00
  0.00000000E+00  0.00000000E+00  0.00000000E+00
  0.00000000E+00  0.00000000E+00  0.00000000E+00
  0.00000000E+00  0.00000000E+00  0.00000000E+00
  0.00000000E+00  0.00000000E+00  0.00000000E+00
  0.00000000E+00  0.00000000E+00  0.00000000E+00
  0.00000000E+00  0.00000000E+00  0.00000000E+00
  0.00000000E+00  0.00000000E+00  0.00000000E+00
  0.00000000E+00  0.00000000E+00  0.00000000E+00
  0.00000000E+00  0.00000000E+00  0.00000000E+00
  0.00000000E+00  0.00000000E+00  0.00000000E+00
  0.00000000E+00  0.00000000E+00  0.00000000E+00
  0.00000000E+00  0.00000000E+00  0.00000000E+00
  0.00000000E+00  0.00000000E+00  0.00000000E+00
  0.00000000E+00  0.00000000E+00  0.00000000E+00
  0.00000000E+00  0.00000000E+00  0.00000000E+00
  0.00000000E+00  0.00000000E+00  0.00000000E+00
  0.00000000E+00  0.00000000E+00  0.00000000E+00
  0.00000000E+00  0.00000000E+00  0.00000000E+00
  0.00000000E+00  0.00000000E+00  0.00000000E+00
  0.00000000E+00  0.00000000E+00  0.00000000E+00
  0.00000000E+00  0.00000000E+00  0.00000000E+00
  0.00000000E+00  0.00000000E+00  0.00000000E+00
  0.00000000E+00  0.00000000E+00  0.00000000E+00
  0.00000000E+00  0.00000000E+00  0.00000000E+00
  0.00000000E+00  0.00000000E+00  0.00000000E+00
  0.00000000E+00  0.00000000E+00  0.00000000E+00
  0.00000000E+00  0.00000000E+00  0.00000000E+00
  0.00000000E+00  0.00000000E+00  0.00000000E+00
  0.00000000E+00  0.00000000E+00  0.00000000E+00
  0.00000000E+00  0.00000000E+00  0.00000000E+00
  0.00000000E+00  0.00000000E+00  0.00000000E+00
  0.00000000E+00  0.00000000E+00  0.00000000E+00
  0.00000000E+00  0.00000000E+00  0.00000000E+00
  0.00000000E+00  0.00000000E+00  0.00000000E+00
  0.00000000E+00  0.00000000E+00  0.00000000E+00
  0.00000000E+00  0.00000000E+00  0.00000000E+00
  0.00000000E+00  0.00000000E+00  0.00000000E+00
  0.00000000E+00  0.00000000E+00  0.00000000E+00
  0.00000000E+00  0.00000000E+00  0.00000000E+00
  0.00000000E+00  0.00000000E+00  0.00000000E+00
  0.00000000E+00  0.00000000E+00  0.00000000E+00
  0.00000000E+00  0.00000000E+00  0.00000000E+00
  0.00000000E+00  0.00000000E+00  0.00000000E+00
  0.00000000E+00  0.00000000E+00  0.00000000E+00
  0.00000000E+00  0.00000000E+00  0.00000000E+00
  0.00000000E+00  0.00000000E+00  0.00000000E+00
  0.00000000E+00  0.00000000E+00  0.00000000E+00
