kk
 1.0000000000000000
     0.0000000000000000   10.9373336906932952   10.9373336906932952
    10.9373336906932952    0.0000000000000000   10.9373336906932952
    10.9373336906932952   10.9373336906932952    0.0000000000000000
 128
Direct
  0.0012482799882490  0.9867826305246352  0.0079049905343305
  0.2501177479636594  0.9908463031055562  0.0062185921750740
  0.5078759871207097  0.9939769743999244  0.0010873301530227
  0.7489328472607283  0.0056519232594666  0.9995126416677200
  0.0063719365341035  0.2490783697958595  0.9939880162378083
  0.2460179367122770  0.2471100099750369  0.9948345800893775
  0.4960556958094838  0.2519790675889986  0.0043204270758831
  0.7448219402798151  0.2561975942963221  0.0003722955137916
  0.9943263153106641  0.5011194244376926  0.0019351393729331
  0.2418608138471116  0.5044700087214328  0.0013649869830897
  0.5002063373675013  0.4932382877600724  0.0051133539315747
  0.7499818734260628  0.5098909854992374  0.9958524302455058
  0.0079743948470802  0.7416009235791415  0.9924279086541310
  0.2456242337022186  0.7479903039665914  0.0070970600705674
  0.5027646477205593  0.7515744893735777  0.9998291973700116
  0.7467179732534607  0.7547994349567578  0.9961041499475320
  0.9925452760527487  0.9983420559617483  0.2446482410450572
  0.2586629136683058  0.9932508335714796  0.2548860190354910
  0.4998924794833148  0.9994912753602533  0.2489292059912746
  0.7522903374643776  0.0026781182767585  0.2463891012336685
  0.0072628362238055  0.2485561398368543  0.2499036421128532
  0.2556206601015522  0.2449628881115192  0.2511823039332959
  0.5008096157569354  0.2509516166019399  0.2510583580758596
  0.7499282966158332  0.2439021160643513  0.2469811681570562
  0.0036223296600088  0.5118643142992342  0.2407662920781464
  0.2518609442830397  0.4956765311025970  0.2353039116156091
  0.5061723811590751  0.4883120480593546  0.2685961431616466
  0.7446767477626376  0.5066987195614447  0.2443256520748201
  0.9948982265598938  0.7454422777799662  0.2570848323569125
  0.2408550626979521  0.7505425960936526  0.2499459062385830
  0.5061112967579225  0.7496064959745858  0.2449100487485443
  0.7454074428554480  0.7496864887897497  0.2448364069172097
  0.0010184968845734  0.0100103403399976  0.5007667526564503
  0.2586052617907300  0.9933280226672966  0.5009740720015917
  0.4962789241139400  0.0028779426747814  0.5032316145689606
  0.7503857641365488  0.0109228843111855  0.5088978994053419
  0.9997230559973767  0.2537069724535483  0.4981651835301866
  0.2655044785063255  0.2453905901127301  0.4950689632294941
  0.5065525450439640  0.2457417382056812  0.4996481448401420
  0.7511115605333333  0.2408028091266234  0.5015688618460244
  0.9988964809949757  0.5109623222279910  0.4876199323860696
  0.2436194429949266  0.4996086477149310  0.5040312121601502
  0.5031413826886518  0.4991037071732439  0.4990295161406189
  0.7481350609035005  0.4815486067210417  0.5054156676212838
  0.0090213016034002  0.7428749869167828  0.5021361475314358
  0.2499342601770838  0.7458980437959877  0.4997509188029542
  0.4999758343978430  0.7616099806872754  0.4891804242470158
  0.7558454135573135  0.7347271841012674  0.4967710991819598
  0.9972663796356184  0.0009275747062647  0.7494701001875534
  0.2556397528524396  0.9977529881746239  0.7478288254871299
  0.5091625714535026  0.9991038286224887  0.7402237313530483
  0.7478548964315517  0.9948917197633074  0.7655298717800303
  0.9930407239291330  0.2537476899972212  0.7599569580225536
  0.2479310728345358  0.2502086444293954  0.7525526012205903
  0.4917485771441392  0.2442588413529583  0.7541506349417220
  0.7531210591603748  0.2548856568572934  0.7482161847213029
  0.0016016398476973  0.5037704474682392  0.7520098132023021
  0.2509036182582422  0.4999732952904152  0.7478068819121395
  0.5021375778842696  0.5093271551748634  0.7354168170300249
  0.7546579659174253  0.4939753868957878  0.7478297633353648
  0.9944870686013056  0.7518374683529532  0.7547344056487433
  0.2522367804705274  0.7339376936703115  0.7516040546858713
  0.4938873477716653  0.7518153424794940  0.7567217594207906
  0.7566470587187127  0.7520494158989227  0.7470683970138874
  0.0699461100947818  0.0676784055132675  0.0611616785080875
  0.3208681956543571  0.0636731410990540  0.0496175874081733
  0.5578636919914133  0.0772939217014711  0.0556135257290154
  0.8107945756230323  0.0629246962113694  0.0597521985242414
  0.0567868734215944  0.3152927930583757  0.0692909073378871
  0.3150531288843240  0.3102972179342735  0.0752997999386788
  0.5712944203900091  0.3047969891194354  0.0608848744235661
  0.8301970606233863  0.3050500332363650  0.0541213315575585
  0.0596528947335832  0.5622890963715493  0.0540735469055652
  0.3102718355116240  0.5560552108270072  0.0624506610152798
  0.5626822741944090  0.5690358756447004  0.0569331726475379
  0.8035774945962125  0.5718458469291233  0.0598792910126500
  0.0599465587538035  0.8090524511957126  0.0630676483350205
  0.3193737084256070  0.8072779392947574  0.0609093088646172
  0.5762862175121399  0.8171023301011447  0.0630974786392884
  0.8138225872086884  0.8172744063839490  0.0603500167385139
  0.0568471639830790  0.0642875978231097  0.3151992567095365
  0.3012900629505783  0.0635998322992693  0.3159031943914229
  0.5594597432158918  0.0671356360018457  0.3208391738903625
  0.8141859385314804  0.0697028500920937  0.3142698309888450
  0.0585005918603066  0.3051258755566635  0.3213371680613220
  0.3188391211091210  0.3185926865909827  0.3030436843931814
  0.5630394800207108  0.3108806624921305  0.3177587089058375
  0.8098674494370747  0.3215780654759655  0.3127062091891768
  0.0727668150306496  0.5548294890543886  0.3117162398958984
  0.3150249415280263  0.5548078049099672  0.3062006992013990
  0.5499433032722075  0.5766009941746522  0.3073165667156914
  0.8296171986274982  0.5606936982296266  0.2980675257178897
  0.0585063937184445  0.8068334759864694  0.3167102746309435
  0.3090892052364121  0.8101873517070542  0.3117502717520169
  0.5651689315565621  0.8143453768741955  0.3105589085383689
  0.8116348790361573  0.8183770251965289  0.3107226155241213
  0.0727694647651965  0.0502551935013881  0.5689997838870032
  0.3087112414282817  0.0728144272509313  0.5616180427877335
  0.5601709024591258  0.0640976084740590  0.5619597620593731
  0.8134311904231055  0.0741727306665955  0.5499622273639657
  0.0533352966400689  0.3072608942265092  0.5713920244893559
  0.3326419330644668  0.3063179465048739  0.5551218042649431
  0.5644369387496840  0.3143431629019174  0.5659730803339191
  0.8240409321683968  0.3057958646943760  0.5620814036701162
  0.0614379274573865  0.5668603256786516  0.5649383857338431
  0.3092291181089267  0.5648233277067990  0.5637538373199104
  0.5627678578224078  0.5712088726494667  0.5481248683883113
  0.8160370968896912  0.5612596609483108  0.5683965984519352
  0.0417772221847760  0.8224979131924355  0.5670614040319203
  0.3185063208035296  0.8089976598869859  0.5637507714067687
  0.5489406962469177  0.8215084701982809  0.5718479497436247
  0.8008981988508843  0.8256816105774487  0.5536461192425981
  0.0615694122114905  0.0685836726018662  0.8112174686368528
  0.3146298524237408  0.0647046849110329  0.8046580233690172
  0.5588782582517678  0.0570154144597585  0.8251471229933185
  0.8170143468294320  0.0562500072223967  0.8175167613724283
  0.0616961341183455  0.3125517211629456  0.8145568780041601
  0.2919514896924380  0.3293302008773319  0.8175311187430505
  0.5577686769499588  0.3166235757986482  0.8037542311223739
  0.8139006820864835  0.3127398547506774  0.8143830191338641
  0.0593282010738799  0.5682162627313326  0.8188204928395739
  0.3111993712435898  0.5517023906843564  0.8115005240505403
  0.5609284952929748  0.5712807656277635  0.8074704464388445
  0.8255765335337280  0.5661739531533840  0.8097162757933299
  0.0605582435178577  0.8174229596612961  0.8110582536824034
  0.3146680854539348  0.8113501433932180  0.8018777287149866
  0.5630072696082677  0.8096694545429728  0.8135698851671712
  0.8143474410483325  0.8050984327885561  0.8180361930791632
