kk                                      
   1.00000000000000     
     0.0000000000000000   10.9373336906932952   10.9373336906932952
    10.9373336906932952    0.0000000000000000   10.9373336906932952
    10.9373336906932952   10.9373336906932952    0.0000000000000000
   Si
   128
Direct
  0.9955517330956241  0.0013689781828248  0.0007010557675287
  0.2499214190581966  0.9960637616055124  0.0080106264765831
  0.4920138748762284  0.9992344141172609  0.9996511334451768
  0.7542502290793962  0.0038454251725639  0.9971935129869465
  0.0050469609516171  0.2461521564764411  0.9961828392025609
  0.2442047718674942  0.2649975401188556  0.9966530324468863
  0.5050476568363962  0.2518435354698099  0.9919660428900556
  0.7484441620316602  0.2535387193245171  0.0000283118148943
  0.9982304795481554  0.5030865901939947  0.9894764910010778
  0.2522336531808449  0.4974418698555070  0.0024366291661693
  0.5112714971932704  0.4944403865545297  0.9950094898013262
  0.7453894949560222  0.5043984193913289  0.0083051196892612
  0.0079850076589523  0.7494208873652326  0.9958847427737112
  0.2369138141667904  0.7568214072398476  0.9974470065468992
  0.5069644346139839  0.7421510672940599  0.0028296223882975
  0.7573233926583640  0.7457876415555162  0.0047371195095280
  0.0000008617425848  0.9976164212452332  0.2364827015086490
  0.2548418244334698  0.0082547299670992  0.2425301312234822
  0.5005317097511863  0.9987894800737820  0.2520002222888493
  0.7497911643954183  0.0027091842705360  0.2533661985331790
  0.0093595178114754  0.2430744001921212  0.2548804673849929
  0.2526771030212913  0.2500604918514995  0.2436250598440921
  0.4935347568014734  0.2584813038138947  0.2416859363472881
  0.7428251760030804  0.2534440155991078  0.2498193249390184
  0.0057689611570524  0.4956539519577916  0.2515011032499288
  0.2523446855879428  0.4959412867071009  0.2463707743449319
  0.4881958708536729  0.4968348297585408  0.2562925711809356
  0.7598409914204112  0.5022178941305029  0.2373672344419404
  0.9975971876171883  0.7446447671359664  0.2468550533343787
  0.2425553521342820  0.7577835198665994  0.2438264927542235
  0.4933827465860290  0.7447365036826881  0.2540192889003521
  0.7450902814419749  0.7537062013335003  0.2552906204213770
  0.0042201367468877  0.0076402555289619  0.4918805913207649
  0.2475658240184089  0.9896752418844770  0.4980307888576974
  0.4836928532828395  0.0016775512675906  0.5087211446878470
  0.7738794625053202  0.9855867062585801  0.4896889847979722
  0.9957046989253229  0.2520061774527136  0.4950042555414669
  0.2472457783833306  0.2394242545780898  0.4985368316619230
  0.5084549476757800  0.2559652663205654  0.4972602519194567
  0.7446114866066935  0.2560851827879347  0.4892940427964660
  0.9968777877213810  0.4991178389546178  0.5029456838403519
  0.2496984786883516  0.5082683646529773  0.4987294571935337
  0.4942851084874889  0.5026417929704223  0.4998664162667978
  0.7434819418964196  0.5051579784441458  0.5005865474692541
  0.9952667700123854  0.7620794992331312  0.4894861460852837
  0.2444457460594336  0.7511287440520746  0.5078326309228558
  0.5017669447285940  0.7386556528611123  0.5069249655367472
  0.7582084467326311  0.7513894063428168  0.4899711848808721
  0.9975774027942350  0.0004836997347795  0.7485228726667827
  0.2549687023453089  0.9984669234283388  0.7554641027261866
  0.5187006345119940  0.9906034616168142  0.7449474231724764
  0.7591566366835778  0.9954263913883565  0.7442873520529432
  0.0006481423803848  0.2456127161975203  0.7621982259006614
  0.2567118826132102  0.2534038374711898  0.7521276474116547
  0.4985103451284232  0.2512607723676652  0.7519000889370986
  0.7360982836403807  0.2626405481262779  0.7489493136732079
  0.9995541544491360  0.4926901160649706  0.7491909647857469
  0.2554214556790413  0.4915660398559965  0.7464131960407698
  0.5036314095139574  0.4985678815323951  0.7482658125851174
  0.7564485238523133  0.5008880135851612  0.7424260574977808
  0.0023886949543765  0.7536274593925967  0.7562584819360296
  0.2643695597511027  0.7429070928639376  0.7480565624612225
  0.4875496176246088  0.7518104189804404  0.7516648710717817
  0.7531950896478321  0.7421682771753169  0.7487489289041775
  0.0610086320265140  0.0670199984413955  0.0510738133893440
  0.3091162432439631  0.0534007677395394  0.0700472237968555
  0.5570649045626936  0.0634061124308545  0.0672231937888341
  0.8040059913240967  0.0725852528049060  0.0686576570435307
  0.0625158951336999  0.3050307005971931  0.0700600300906515
  0.3129074343036251  0.3124349240250979  0.0616016950552876
  0.5576983046254682  0.3105811408027179  0.0736048624565768
  0.8178341733838153  0.3102009029026007  0.0645399513666547
  0.0500725788674075  0.5694311957305587  0.0667823422306313
  0.3234553111056258  0.5555456293362440  0.0671903293575866
  0.5677685288059848  0.5518342134825076  0.0560709289127388
  0.8113743054230085  0.5678002853569026  0.0603673200865913
  0.0594233924033531  0.8064685747666189  0.0755951549014924
  0.3095003903178934  0.8181048809905889  0.0586193594236661
  0.5706798721836606  0.8102421537536912  0.0609489493046027
  0.8246759516627122  0.8059419105298531  0.0479628870100655
  0.0605319087116314  0.0665734756286867  0.3090672838504389
  0.3132668864088828  0.0600682018608083  0.3112917766904744
  0.5609808753892978  0.0655948284151577  0.3139328786979689
  0.8016616863543504  0.0573118403434805  0.3183357211877222
  0.0641162277455081  0.3187085191618735  0.3173442447848487
  0.3101056723616367  0.3188222855739582  0.3137071432339127
  0.5565043394934861  0.3196802738072648  0.3030252090620849
  0.8164467697995761  0.3076857732998093  0.3083453484098442
  0.0696555428444654  0.5527541058115730  0.3172842203114214
  0.2948676861619433  0.5784842308600915  0.3198114215688719
  0.5603485530469996  0.5653331865202986  0.3100044502433903
  0.8055675441866228  0.5583469595507182  0.3099211758756866
  0.0599332450897094  0.8076892065882291  0.3089706730633708
  0.3126476504700193  0.8230351927686854  0.3160873445267569
  0.5547538985638383  0.8122451849137420  0.3157072908245269
  0.8086430417108161  0.8128707025234263  0.3123750599726449
  0.0622881036550638  0.0720393983941321  0.5674899272653633
  0.3108802948687952  0.0611722822049359  0.5731266093650120
  0.5617002819047840  0.0707875406896932  0.5613448183447076
  0.8137143822294561  0.0667608804782489  0.5615759099680986
  0.0662028930794847  0.2967004725424616  0.5742430584061040
  0.3088781009466786  0.3174019911605228  0.5635927693798877
  0.5476756917033754  0.3283103809005965  0.5585990199167625
  0.8195666497206560  0.3168229162303291  0.5552634299160175
  0.0551103793168011  0.5793136922380810  0.5676797040667410
  0.3180142854425654  0.5563874384308676  0.5676077107556736
  0.5586598419984412  0.5587599520836974  0.5668722571373763
  0.8013670257443692  0.5819085835468627  0.5712273886776202
  0.0681126528720810  0.8144382681579856  0.5628488934517222
  0.3155448077570142  0.8138667871156287  0.5488064590823498
  0.5675017464618364  0.8181440094784236  0.5617619823427589
  0.8111231747212457  0.8108583677471159  0.5631743724362934
  0.0576054499998904  0.0685543551281143  0.8260315785645318
  0.3167919177861123  0.0595005651350604  0.8186491833784331
  0.5733529562244470  0.0530115185338431  0.8253880823231512
  0.8229774448160470  0.0490322940682546  0.8128630314477263
  0.0627506049336546  0.3090820306838040  0.8178879716873908
  0.3219111922544897  0.3057152291536838  0.8077215642442184
  0.5499780056268264  0.3104647297810885  0.8214589537962240
  0.8129595054148098  0.3057082159051490  0.8211553251071209
  0.0607067815509126  0.5666669829869235  0.7981451550715732
  0.3145475936071165  0.5580181346117925  0.8139757392865619
  0.5606692259864090  0.5694455271026939  0.8148611474800589
  0.8162683577277221  0.5542403111416618  0.8110438521986794
  0.0689904554371239  0.8221628488059807  0.8009707409037148
  0.3049806914620632  0.8142942362618797  0.8210744307772657
  0.5601750373154459  0.8112495397350088  0.8064193791624916
  0.8106259752542186  0.8159379259963231  0.8151358184095869
 
  0.00000000E+00  0.00000000E+00  0.00000000E+00
  0.00000000E+00  0.00000000E+00  0.00000000E+00
  0.00000000E+00  0.00000000E+00  0.00000000E+00
  0.00000000E+00  0.00000000E+00  0.00000000E+00
  0.00000000E+00  0.00000000E+00  0.00000000E+00
  0.00000000E+00  0.00000000E+00  0.00000000E+00
  0.00000000E+00  0.00000000E+00  0.00000000E+00
  0.00000000E+00  0.00000000E+00  0.00000000E+00
  0.00000000E+00  0.00000000E+00  0.00000000E+00
  0.00000000E+00  0.00000000E+00  0.00000000E+00
  0.00000000E+00  0.00000000E+00  0.00000000E+00
  0.00000000E+00  0.00000000E+00  0.00000000E+00
  0.00000000E+00  0.00000000E+00  0.00000000E+00
  0.00000000E+00  0.00000000E+00  0.00000000E+00
  0.00000000E+00  0.00000000E+00  0.00000000E+00
  0.00000000E+00  0.00000000E+00  0.00000000E+00
  0.00000000E+00  0.00000000E+00  0.00000000E+00
  0.00000000E+00  0.00000000E+00  0.00000000E+00
  0.00000000E+00  0.00000000E+00  0.00000000E+00
  0.00000000E+00  0.00000000E+00  0.00000000E+00
  0.00000000E+00  0.00000000E+00  0.00000000E+00
  0.00000000E+00  0.00000000E+00  0.00000000E+00
  0.00000000E+00  0.00000000E+00  0.00000000E+00
  0.00000000E+00  0.00000000E+00  0.00000000E+00
  0.00000000E+00  0.00000000E+00  0.00000000E+00
  0.00000000E+00  0.00000000E+00  0.00000000E+00
  0.00000000E+00  0.00000000E+00  0.00000000E+00
  0.00000000E+00  0.00000000E+00  0.00000000E+00
  0.00000000E+00  0.00000000E+00  0.00000000E+00
  0.00000000E+00  0.00000000E+00  0.00000000E+00
  0.00000000E+00  0.00000000E+00  0.00000000E+00
  0.00000000E+00  0.00000000E+00  0.00000000E+00
  0.00000000E+00  0.00000000E+00  0.00000000E+00
  0.00000000E+00  0.00000000E+00  0.00000000E+00
  0.00000000E+00  0.00000000E+00  0.00000000E+00
  0.00000000E+00  0.00000000E+00  0.00000000E+00
  0.00000000E+00  0.00000000E+00  0.00000000E+00
  0.00000000E+00  0.00000000E+00  0.00000000E+00
  0.00000000E+00  0.00000000E+00  0.00000000E+00
  0.00000000E+00  0.00000000E+00  0.00000000E+00
  0.00000000E+00  0.00000000E+00  0.00000000E+00
  0.00000000E+00  0.00000000E+00  0.00000000E+00
  0.00000000E+00  0.00000000E+00  0.00000000E+00
  0.00000000E+00  0.00000000E+00  0.00000000E+00
  0.00000000E+00  0.00000000E+00  0.00000000E+00
  0.00000000E+00  0.00000000E+00  0.00000000E+00
  0.00000000E+00  0.00000000E+00  0.00000000E+00
  0.00000000E+00  0.00000000E+00  0.00000000E+00
  0.00000000E+00  0.00000000E+00  0.00000000E+00
  0.00000000E+00  0.00000000E+00  0.00000000E+00
  0.00000000E+00  0.00000000E+00  0.00000000E+00
  0.00000000E+00  0.00000000E+00  0.00000000E+00
  0.00000000E+00  0.00000000E+00  0.00000000E+00
  0.00000000E+00  0.00000000E+00  0.00000000E+00
  0.00000000E+00  0.00000000E+00  0.00000000E+00
  0.00000000E+00  0.00000000E+00  0.00000000E+00
  0.00000000E+00  0.00000000E+00  0.00000000E+00
  0.00000000E+00  0.00000000E+00  0.00000000E+00
  0.00000000E+00  0.00000000E+00  0.00000000E+00
  0.00000000E+00  0.00000000E+00  0.00000000E+00
  0.00000000E+00  0.00000000E+00  0.00000000E+00
  0.00000000E+00  0.00000000E+00  0.00000000E+00
  0.00000000E+00  0.00000000E+00  0.00000000E+00
  0.00000000E+00  0.00000000E+00  0.00000000E+00
  0.00000000E+00  0.00000000E+00  0.00000000E+00
  0.00000000E+00  0.00000000E+00  0.00000000E+00
  0.00000000E+00  0.00000000E+00  0.00000000E+00
  0.00000000E+00  0.00000000E+00  0.00000000E+00
  0.00000000E+00  0.00000000E+00  0.00000000E+00
  0.00000000E+00  0.00000000E+00  0.00000000E+00
  0.00000000E+00  0.00000000E+00  0.00000000E+00
  0.00000000E+00  0.00000000E+00  0.00000000E+00
  0.00000000E+00  0.00000000E+00  0.00000000E+00
  0.00000000E+00  0.00000000E+00  0.00000000E+00
  0.00000000E+00  0.00000000E+00  0.00000000E+00
  0.00000000E+00  0.00000000E+00  0.00000000E+00
  0.00000000E+00  0.00000000E+00  0.00000000E+00
  0.00000000E+00  0.00000000E+00  0.00000000E+00
  0.00000000E+00  0.00000000E+00  0.00000000E+00
  0.00000000E+00  0.00000000E+00  0.00000000E+00
  0.00000000E+00  0.00000000E+00  0.00000000E+00
  0.00000000E+00  0.00000000E+00  0.00000000E+00
  0.00000000E+00  0.00000000E+00  0.00000000E+00
  0.00000000E+00  0.00000000E+00  0.00000000E+00
  0.00000000E+00  0.00000000E+00  0.00000000E+00
  0.00000000E+00  0.00000000E+00  0.00000000E+00
  0.00000000E+00  0.00000000E+00  0.00000000E+00
  0.00000000E+00  0.00000000E+00  0.00000000E+00
  0.00000000E+00  0.00000000E+00  0.00000000E+00
  0.00000000E+00  0.00000000E+00  0.00000000E+00
  0.00000000E+00  0.00000000E+00  0.00000000E+00
  0.00000000E+00  0.00000000E+00  0.00000000E+00
  0.00000000E+00  0.00000000E+00  0.00000000E+00
  0.00000000E+00  0.00000000E+00  0.00000000E+00
  0.00000000E+00  0.00000000E+00  0.00000000E+00
  0.00000000E+00  0.00000000E+00  0.00000000E+00
  0.00000000E+00  0.00000000E+00  0.00000000E+00
  0.00000000E+00  0.00000000E+00  0.00000000E+00
  0.00000000E+00  0.00000000E+00  0.00000000E+00
  0.00000000E+00  0.00000000E+00  0.00000000E+00
  0.00000000E+00  0.00000000E+00  0.00000000E+00
  0.00000000E+00  0.00000000E+00  0.00000000E+00
  0.00000000E+00  0.00000000E+00  0.00000000E+00
  0.00000000E+00  0.00000000E+00  0.00000000E+00
  0.00000000E+00  0.00000000E+00  0.00000000E+00
  0.00000000E+00  0.00000000E+00  0.00000000E+00
  0.00000000E+00  0.00000000E+00  0.00000000E+00
  0.00000000E+00  0.00000000E+00  0.00000000E+00
  0.00000000E+00  0.00000000E+00  0.00000000E+00
  0.00000000E+00  0.00000000E+00  0.00000000E+00
  0.00000000E+00  0.00000000E+00  0.00000000E+00
  0.00000000E+00  0.00000000E+00  0.00000000E+00
  0.00000000E+00  0.00000000E+00  0.00000000E+00
  0.00000000E+00  0.00000000E+00  0.00000000E+00
  0.00000000E+00  0.00000000E+00  0.00000000E+00
  0.00000000E+00  0.00000000E+00  0.00000000E+00
  0.00000000E+00  0.00000000E+00  0.00000000E+00
  0.00000000E+00  0.00000000E+00  0.00000000E+00
  0.00000000E+00  0.00000000E+00  0.00000000E+00
  0.00000000E+00  0.00000000E+00  0.00000000E+00
  0.00000000E+00  0.00000000E+00  0.00000000E+00
  0.00000000E+00  0.00000000E+00  0.00000000E+00
  0.00000000E+00  0.00000000E+00  0.00000000E+00
  0.00000000E+00  0.00000000E+00  0.00000000E+00
  0.00000000E+00  0.00000000E+00  0.00000000E+00
  0.00000000E+00  0.00000000E+00  0.00000000E+00
  0.00000000E+00  0.00000000E+00  0.00000000E+00
  0.00000000E+00  0.00000000E+00  0.00000000E+00
