kk
 1.0000000000000000
     0.0000000000000000   10.9373336906932952   10.9373336906932952
    10.9373336906932952    0.0000000000000000   10.9373336906932952
    10.9373336906932952   10.9373336906932952    0.0000000000000000
 128
Direct
  0.9955517330956229  0.0013689781828246  0.0007010557675308
  0.2499214190581988  0.9960637616055152  0.0080106264765864
  0.4920138748762249  0.9992344141172627  0.9996511334451773
  0.7542502290793954  0.0038454251725615  0.9971935129869435
  0.0050469609516186  0.2461521564764381  0.9961828392025631
  0.2442047718674968  0.2649975401188591  0.9966530324468835
  0.5050476568363945  0.2518435354698112  0.9919660428900536
  0.7484441620316636  0.2535387193245168  0.0000283118148926
  0.9982304795481560  0.5030865901939970  0.9894764910010764
  0.2522336531808475  0.4974418698555076  0.0024366291661708
  0.5112714971932678  0.4944403865545278  0.9950094898013239
  0.7453894949560235  0.5043984193913320  0.0083051196892602
  0.0079850076589550  0.7494208873652352  0.9958847427737109
  0.2369138141667873  0.7568214072398489  0.9974470065469007
  0.5069644346139869  0.7421510672940564  0.0028296223883004
  0.7573233926583670  0.7457876415555132  0.0047371195095287
  0.0000008617425819  0.9976164212452310  0.2364827015086468
  0.2548418244334698  0.0082547299670966  0.2425301312234841
  0.5005317097511870  0.9987894800737847  0.2520002222888483
  0.7497911643954199  0.0027091842705360  0.2533661985331798
  0.0093595178114763  0.2430744001921218  0.2548804673849945
  0.2526771030212932  0.2500604918515025  0.2436250598440901
  0.4935347568014726  0.2584813038138969  0.2416859363472856
  0.7428251760030782  0.2534440155991070  0.2498193249390163
  0.0057689611570545  0.4956539519577886  0.2515011032499269
  0.2523446855879428  0.4959412867070987  0.2463707743449325
  0.4881958708536729  0.4968348297585398  0.2562925711809350
  0.7598409914204084  0.5022178941305008  0.2373672344419427
  0.9975971876171884  0.7446447671359684  0.2468550533343818
  0.2425553521342822  0.7577835198666019  0.2438264927542232
  0.4933827465860309  0.7447365036826897  0.2540192889003506
  0.7450902814419774  0.7537062013335029  0.2552906204213805
  0.0042201367468864  0.0076402555289635  0.4918805913207641
  0.2475658240184119  0.9896752418844791  0.4980307888576965
  0.4836928532828365  0.0016775512675889  0.5087211446878481
  0.7738794625053188  0.9855867062585835  0.4896889847979710
  0.9957046989253221  0.2520061774527138  0.4950042555414642
  0.2472457783833274  0.2394242545780867  0.4985368316619257
  0.5084549476757794  0.2559652663205672  0.4972602519194533
  0.7446114866066932  0.2560851827879325  0.4892940427964648
  0.9968777877213838  0.4991178389546157  0.5029456838403495
  0.2496984786883526  0.5082683646529780  0.4987294571935337
  0.4942851084874883  0.5026417929704233  0.4998664162667972
  0.7434819418964189  0.5051579784441472  0.5005865474692545
  0.9952667700123851  0.7620794992331306  0.4894861460852843
  0.2444457460594351  0.7511287440520762  0.5078326309228551
  0.5017669447285971  0.7386556528611117  0.5069249655367460
  0.7582084467326344  0.7513894063428199  0.4899711848808710
  0.9975774027942376  0.0004836997347799  0.7485228726667812
  0.2549687023453099  0.9984669234283375  0.7554641027261882
  0.5187006345119950  0.9906034616168131  0.7449474231724730
  0.7591566366835746  0.9954263913883572  0.7442873520529435
  0.0006481423803826  0.2456127161975177  0.7621982259006649
  0.2567118826132106  0.2534038374711930  0.7521276474116526
  0.4985103451284202  0.2512607723676633  0.7519000889371013
  0.7360982836403829  0.2626405481262767  0.7489493136732053
  0.9995541544491370  0.4926901160649731  0.7491909647857488
  0.2554214556790412  0.4915660398559936  0.7464131960407713
  0.5036314095139554  0.4985678815323960  0.7482658125851140
  0.7564485238523118  0.5008880135851643  0.7424260574977839
  0.0023886949543747  0.7536274593925987  0.7562584819360300
  0.2643695597511037  0.7429070928639352  0.7480565624612213
  0.4875496176246120  0.7518104189804399  0.7516648710717786
  0.7531950896478311  0.7421682771753146  0.7487489289041803
  0.0610086320265141  0.0670199984413965  0.0510738133893459
  0.3091162432439658  0.0534007677395362  0.0700472237968565
  0.5570649045626945  0.0634061124308540  0.0672231937888324
  0.8040059913240964  0.0725852528049060  0.0686576570435295
  0.0625158951337026  0.3050307005971956  0.0700600300906546
  0.3129074343036237  0.3124349240250963  0.0616016950552904
  0.5576983046254702  0.3105811408027194  0.0736048624565783
  0.8178341733838141  0.3102009029026009  0.0645399513666575
  0.0500725788674100  0.5694311957305571  0.0667823422306347
  0.3234553111056281  0.5555456293362426  0.0671903293575841
  0.5677685288059869  0.5518342134825100  0.0560709289127400
  0.8113743054230117  0.5678002853569054  0.0603673200865948
  0.0594233924033525  0.8064685747666164  0.0755951549014921
  0.3095003903178944  0.8181048809905905  0.0586193594236633
  0.5706798721836615  0.8102421537536880  0.0609489493046000
  0.8246759516627108  0.8059419105298538  0.0479628870100655
  0.0605319087116315  0.0665734756286880  0.3090672838504395
  0.3132668864088847  0.0600682018608100  0.3112917766904734
  0.5609808753892966  0.0655948284151565  0.3139328786979691
  0.8016616863543522  0.0573118403434808  0.3183357211877256
  0.0641162277455092  0.3187085191618766  0.3173442447848464
  0.3101056723616337  0.3188222855739554  0.3137071432339119
  0.5565043394934889  0.3196802738072637  0.3030252090620834
  0.8164467697995770  0.3076857732998108  0.3083453484098448
  0.0696555428444633  0.5527541058115714  0.3172842203114217
  0.2948676861619426  0.5784842308600894  0.3198114215688744
  0.5603485530469985  0.5653331865203002  0.3100044502433933
  0.8055675441866215  0.5583469595507199  0.3099211758756883
  0.0599332450897110  0.8076892065882325  0.3089706730633701
  0.3126476504700193  0.8230351927686860  0.3160873445267556
  0.5547538985638416  0.8122451849137405  0.3157072908245247
  0.8086430417108165  0.8128707025234284  0.3123750599726481
  0.0622881036550653  0.0720393983941331  0.5674899272653667
  0.3108802948687964  0.0611722822049335  0.5731266093650150
  0.5617002819047859  0.0707875406896911  0.5613448183447067
  0.8137143822294572  0.0667608804782505  0.5615759099680970
  0.0662028930794814  0.2967004725424606  0.5742430584061056
  0.3088781009466791  0.3174019911605219  0.5635927693798864
  0.5476756917033788  0.3283103809005981  0.5585990199167612
  0.8195666497206566  0.3168229162303279  0.5552634299160201
  0.0551103793167998  0.5793136922380824  0.5676797040667434
  0.3180142854425679  0.5563874384308694  0.5676077107556727
  0.5586598419984438  0.5587599520837007  0.5668722571373754
  0.8013670257443697  0.5819085835468630  0.5712273886776181
  0.0681126528720799  0.8144382681579838  0.5628488934517235
  0.3155448077570138  0.8138667871156314  0.5488064590823496
  0.5675017464618345  0.8181440094784261  0.5617619823427596
  0.8111231747212458  0.8108583677471152  0.5631743724362928
  0.0576054499998874  0.0685543551281116  0.8260315785645288
  0.3167919177861102  0.0595005651350639  0.8186491833784353
  0.5733529562244503  0.0530115185338450  0.8253880823231516
  0.8229774448160495  0.0490322940682549  0.8128630314477298
  0.0627506049336522  0.3090820306838027  0.8178879716873939
  0.3219111922544902  0.3057152291536872  0.8077215642442164
  0.5499780056268285  0.3104647297810901  0.8214589537962214
  0.8129595054148105  0.3057082159051500  0.8211553251071232
  0.0607067815509158  0.5666669829869205  0.7981451550715710
  0.3145475936071170  0.5580181346117945  0.8139757392865588
  0.5606692259864084  0.5694455271026913  0.8148611474800579
  0.8162683577277254  0.5542403111416588  0.8110438521986787
  0.0689904554371223  0.8221628488059780  0.8009707409037113
  0.3049806914620662  0.8142942362618810  0.8210744307772672
  0.5601750373154446  0.8112495397350107  0.8064193791624922
  0.8106259752542160  0.8159379259963196  0.8151358184095879
