kk                                      
   1.00000000000000     
     0.0000000000000000   10.9373336906932952   10.9373336906932952
    10.9373336906932952    0.0000000000000000   10.9373336906932952
    10.9373336906932952   10.9373336906932952    0.0000000000000000
   Si
   128
Direct
  0.0038233645552026  0.9940059560906462  0.9958354298355729
  0.2457463654546643  0.9960208533670141  0.9933417794683734
  0.5224696988059634  0.9956429136382781  0.9931130193489750
  0.7551825264316392  0.9935891503851479  0.9957813698652629
  0.9973703714907387  0.2495397169156064  0.0017002712659107
  0.2463091390035359  0.2476863928003041  0.9997728779260768
  0.5074482762278549  0.2444794017264371  0.0018449741706306
  0.7438282130562683  0.2495046523557463  0.0163668570212039
  0.9988111866229161  0.5004979134169503  0.9981711687648627
  0.2460871944347005  0.5038344217364852  0.9959005267975201
  0.5024229806381442  0.4916836565301566  0.9957586839224319
  0.7499460713796466  0.4970903514138172  0.0065105738500009
  0.0097478812263390  0.7409182557245444  0.9977134980721445
  0.2467832099811957  0.7508067823084801  0.9990484431114766
  0.4968700476168237  0.7503087836468936  0.9951050740095795
  0.7480518631639441  0.7472631680240696  0.0029915916348884
  0.9877075078651316  0.9880714223906892  0.2541733806316486
  0.2445238802408056  0.0101592671902395  0.2572650444856208
  0.5017654126826230  0.0033054159819770  0.2478703107417815
  0.7450432095947264  0.9975181308534857  0.2492053342492966
  0.9947897592858297  0.2400502965723277  0.2569242575401915
  0.2489263382509961  0.2625117630570770  0.2526155727357065
  0.5044155493300764  0.2566987747964689  0.2455283617557029
  0.7515579813831010  0.2573015444401747  0.2485797866578991
  0.9987632458284423  0.5024869038711728  0.2459979389740141
  0.2429537811215638  0.4985352778868659  0.2400885520496914
  0.4972073871246536  0.4996914630471636  0.2413308128874405
  0.7517502763116255  0.4954092980647218  0.2498941932617456
  0.9975625377747548  0.7386851184505261  0.2647687437766493
  0.2450284225417789  0.7524765216124862  0.2362861823174285
  0.4993806527484992  0.7614803356775468  0.2404972389442008
  0.7494640549832354  0.7591972777530529  0.2461951479911519
  0.9950094436437027  0.0050233177246355  0.4987995063609816
  0.2520823852027192  0.9931968697369129  0.5184080377930727
  0.4927218973682059  0.9915468664298643  0.5003848977648389
  0.7591045147185795  0.0095930484717854  0.4976918390120986
  0.9983956095081581  0.2507692019684598  0.4983919419175891
  0.2620523100969976  0.2511031524729361  0.4955235168787766
  0.4942437159966744  0.2551394587673173  0.4975460712722892
  0.7402604910849462  0.2544810318912596  0.5006614156481746
  0.0041253175336351  0.4979789713924987  0.4910476314688097
  0.2577369706029273  0.4898632181854268  0.4994191077053713
  0.5104014442512081  0.4934294953669180  0.4886019612752790
  0.7450019586122423  0.4926959582920958  0.5072655674634134
  0.0063198984231576  0.7605505007960573  0.4922229674075709
  0.2508635224134679  0.7451171295284666  0.4978377475022100
  0.5047449730379796  0.7523603848304532  0.4880944757218657
  0.7541698178486413  0.7455999331730538  0.5094306260612171
  0.0023577921944025  0.9989408589740094  0.7426224531751018
  0.2395882622865528  0.0038111056097705  0.7603217459562188
  0.5173925267178774  0.9916362134174861  0.7555231008982872
  0.7457469119178697  0.0009908754561678  0.7501977807452818
  0.9934375847224075  0.2456146073482728  0.7591307878991103
  0.2519153860873899  0.2489356709104342  0.7583533605577983
  0.4935476637827705  0.2578537329538335  0.7474163693474196
  0.7631796719831954  0.2498139814435234  0.7401913153774160
  0.9904454836875161  0.4975519561983432  0.7644515824464406
  0.2554662882398020  0.4987037347164573  0.7458975461873791
  0.4985386248697239  0.5008970099808749  0.7553841837760444
  0.7586612979986569  0.4974148475163602  0.7379475339801971
  0.9943036716069003  0.7545787083285873  0.7598176104073247
  0.2504512253115578  0.7491919970651892  0.7467704421919024
  0.5058978022080893  0.7406546841752615  0.7506484301759144
  0.7618380732986338  0.7393046266963097  0.7573747610056856
  0.0584929935638954  0.0616839502863940  0.0625018832675579
  0.3029845711128587  0.0636727107578139  0.0643157901960763
  0.5641082944732148  0.0665720538505994  0.0628186289914652
  0.8255180731344751  0.0574319677886237  0.0581317333984614
  0.0720658018234133  0.3180425333344061  0.0556007362312769
  0.3162455080154913  0.3065572305507160  0.0692234247209882
  0.5583371039576406  0.3112823166527363  0.0677743567757787
  0.8120988061871373  0.3187277057247258  0.0628456881513557
  0.0543616593614402  0.5525543411209455  0.0666624611076543
  0.3014043566105116  0.5575848001696784  0.0683740319182249
  0.5680110996321659  0.5702521680208221  0.0535500368499342
  0.8104652407309558  0.5672661841190276  0.0682593119158312
  0.0629350904424797  0.8168878965954676  0.0772388817192677
  0.3018170898682726  0.8136423492155771  0.0638423083279704
  0.5587951657883181  0.8157641780676670  0.0649573367589937
  0.8147322683541560  0.8150552490003520  0.0570160860789457
  0.0546860760723149  0.0597354998449120  0.3107247090057399
  0.2972385617601105  0.0816584189554916  0.3017771141813839
  0.5665776565490148  0.0644552968622421  0.3091170871479676
  0.8115645106219418  0.0622001762887265  0.3134043407344151
  0.0617355545935894  0.3114292580632281  0.3158718741324691
  0.3194170064983552  0.3148515193005679  0.3189549218126047
  0.5578882437445856  0.3162993597647414  0.3237029291742601
  0.8106821315378951  0.3197728339580976  0.3166009842337800
  0.0656846150945185  0.5510036205358659  0.3216196235424036
  0.3089451798490046  0.5745222096498352  0.3115585424143461
  0.5661925626689097  0.5679991828176938  0.3097174175851194
  0.8050671022702076  0.5700790310575243  0.3160575987673866
  0.0589175703470843  0.8021297249033310  0.3148412152373723
  0.3018189459597522  0.8254346288364047  0.3175467752378083
  0.5538065496789883  0.8268718113599647  0.3052438592901083
  0.8123425624480589  0.8091197101022445  0.3097534083783486
  0.0722229113035766  0.0527421282124934  0.5624981322145430
  0.3092562623298036  0.0627645272610522  0.5694711447297465
  0.5662665068709032  0.0672804610395943  0.5634166786102526
  0.8103882638818263  0.0692820703372306  0.5634312721352899
  0.0563882338442951  0.3038337518086749  0.5801587804749175
  0.3202195124673821  0.3027174205451431  0.5529771273608972
  0.5643453771223150  0.3077379547118255  0.5729661629483545
  0.7983661132974262  0.3150143603388358  0.5646489390641989
  0.0547280782299708  0.5672664194280586  0.5585996249377203
  0.3175098823110574  0.5601326756813592  0.5591839237859304
  0.5498010543825131  0.5711361081864794  0.5591649881598428
  0.8064296288123245  0.5641371548351941  0.5673978338255381
  0.0739044562442359  0.8094552164489457  0.5513722391272609
  0.3139667392528622  0.8145796076394660  0.5579849010465381
  0.5722149709157947  0.8154315929730416  0.5566744195796787
  0.8055799586515420  0.8209270557610964  0.5637469368269450
  0.0595030488030801  0.0709170360087086  0.8036349800426237
  0.3192118116075306  0.0646162180517038  0.8143747264636048
  0.5490980342427818  0.0717039047675527  0.8202350805758911
  0.8213509282593066  0.0464341501984293  0.8193959366583883
  0.0686942493021689  0.3154256074748787  0.8030826520166272
  0.3120783444450339  0.3134524828948670  0.8064630721906809
  0.5660615551767947  0.3069221919055209  0.8021142127601308
  0.8101934646672149  0.3181023355040153  0.8049316690248389
  0.0651053063927165  0.5480880764675717  0.8217022834380430
  0.3071905651752616  0.5675979449223476  0.8172842617729614
  0.5661639882004295  0.5577371474386084  0.8127798355532079
  0.8101053557727340  0.5682136957010613  0.8108374740986406
  0.0654415510992123  0.8127768905150603  0.8098244842303188
  0.3315291960242135  0.8068347195794559  0.8079223109249938
  0.5701866141681293  0.8062872543468771  0.8036879518972313
  0.8121188654469549  0.8039461225198394  0.8259884998901796
 
  0.00000000E+00  0.00000000E+00  0.00000000E+00
  0.00000000E+00  0.00000000E+00  0.00000000E+00
  0.00000000E+00  0.00000000E+00  0.00000000E+00
  0.00000000E+00  0.00000000E+00  0.00000000E+00
  0.00000000E+00  0.00000000E+00  0.00000000E+00
  0.00000000E+00  0.00000000E+00  0.00000000E+00
  0.00000000E+00  0.00000000E+00  0.00000000E+00
  0.00000000E+00  0.00000000E+00  0.00000000E+00
  0.00000000E+00  0.00000000E+00  0.00000000E+00
  0.00000000E+00  0.00000000E+00  0.00000000E+00
  0.00000000E+00  0.00000000E+00  0.00000000E+00
  0.00000000E+00  0.00000000E+00  0.00000000E+00
  0.00000000E+00  0.00000000E+00  0.00000000E+00
  0.00000000E+00  0.00000000E+00  0.00000000E+00
  0.00000000E+00  0.00000000E+00  0.00000000E+00
  0.00000000E+00  0.00000000E+00  0.00000000E+00
  0.00000000E+00  0.00000000E+00  0.00000000E+00
  0.00000000E+00  0.00000000E+00  0.00000000E+00
  0.00000000E+00  0.00000000E+00  0.00000000E+00
  0.00000000E+00  0.00000000E+00  0.00000000E+00
  0.00000000E+00  0.00000000E+00  0.00000000E+00
  0.00000000E+00  0.00000000E+00  0.00000000E+00
  0.00000000E+00  0.00000000E+00  0.00000000E+00
  0.00000000E+00  0.00000000E+00  0.00000000E+00
  0.00000000E+00  0.00000000E+00  0.00000000E+00
  0.00000000E+00  0.00000000E+00  0.00000000E+00
  0.00000000E+00  0.00000000E+00  0.00000000E+00
  0.00000000E+00  0.00000000E+00  0.00000000E+00
  0.00000000E+00  0.00000000E+00  0.00000000E+00
  0.00000000E+00  0.00000000E+00  0.00000000E+00
  0.00000000E+00  0.00000000E+00  0.00000000E+00
  0.00000000E+00  0.00000000E+00  0.00000000E+00
  0.00000000E+00  0.00000000E+00  0.00000000E+00
  0.00000000E+00  0.00000000E+00  0.00000000E+00
  0.00000000E+00  0.00000000E+00  0.00000000E+00
  0.00000000E+00  0.00000000E+00  0.00000000E+00
  0.00000000E+00  0.00000000E+00  0.00000000E+00
  0.00000000E+00  0.00000000E+00  0.00000000E+00
  0.00000000E+00  0.00000000E+00  0.00000000E+00
  0.00000000E+00  0.00000000E+00  0.00000000E+00
  0.00000000E+00  0.00000000E+00  0.00000000E+00
  0.00000000E+00  0.00000000E+00  0.00000000E+00
  0.00000000E+00  0.00000000E+00  0.00000000E+00
  0.00000000E+00  0.00000000E+00  0.00000000E+00
  0.00000000E+00  0.00000000E+00  0.00000000E+00
  0.00000000E+00  0.00000000E+00  0.00000000E+00
  0.00000000E+00  0.00000000E+00  0.00000000E+00
  0.00000000E+00  0.00000000E+00  0.00000000E+00
  0.00000000E+00  0.00000000E+00  0.00000000E+00
  0.00000000E+00  0.00000000E+00  0.00000000E+00
  0.00000000E+00  0.00000000E+00  0.00000000E+00
  0.00000000E+00  0.00000000E+00  0.00000000E+00
  0.00000000E+00  0.00000000E+00  0.00000000E+00
  0.00000000E+00  0.00000000E+00  0.00000000E+00
  0.00000000E+00  0.00000000E+00  0.00000000E+00
  0.00000000E+00  0.00000000E+00  0.00000000E+00
  0.00000000E+00  0.00000000E+00  0.00000000E+00
  0.00000000E+00  0.00000000E+00  0.00000000E+00
  0.00000000E+00  0.00000000E+00  0.00000000E+00
  0.00000000E+00  0.00000000E+00  0.00000000E+00
  0.00000000E+00  0.00000000E+00  0.00000000E+00
  0.00000000E+00  0.00000000E+00  0.00000000E+00
  0.00000000E+00  0.00000000E+00  0.00000000E+00
  0.00000000E+00  0.00000000E+00  0.00000000E+00
  0.00000000E+00  0.00000000E+00  0.00000000E+00
  0.00000000E+00  0.00000000E+00  0.00000000E+00
  0.00000000E+00  0.00000000E+00  0.00000000E+00
  0.00000000E+00  0.00000000E+00  0.00000000E+00
  0.00000000E+00  0.00000000E+00  0.00000000E+00
  0.00000000E+00  0.00000000E+00  0.00000000E+00
  0.00000000E+00  0.00000000E+00  0.00000000E+00
  0.00000000E+00  0.00000000E+00  0.00000000E+00
  0.00000000E+00  0.00000000E+00  0.00000000E+00
  0.00000000E+00  0.00000000E+00  0.00000000E+00
  0.00000000E+00  0.00000000E+00  0.00000000E+00
  0.00000000E+00  0.00000000E+00  0.00000000E+00
  0.00000000E+00  0.00000000E+00  0.00000000E+00
  0.00000000E+00  0.00000000E+00  0.00000000E+00
  0.00000000E+00  0.00000000E+00  0.00000000E+00
  0.00000000E+00  0.00000000E+00  0.00000000E+00
  0.00000000E+00  0.00000000E+00  0.00000000E+00
  0.00000000E+00  0.00000000E+00  0.00000000E+00
  0.00000000E+00  0.00000000E+00  0.00000000E+00
  0.00000000E+00  0.00000000E+00  0.00000000E+00
  0.00000000E+00  0.00000000E+00  0.00000000E+00
  0.00000000E+00  0.00000000E+00  0.00000000E+00
  0.00000000E+00  0.00000000E+00  0.00000000E+00
  0.00000000E+00  0.00000000E+00  0.00000000E+00
  0.00000000E+00  0.00000000E+00  0.00000000E+00
  0.00000000E+00  0.00000000E+00  0.00000000E+00
  0.00000000E+00  0.00000000E+00  0.00000000E+00
  0.00000000E+00  0.00000000E+00  0.00000000E+00
  0.00000000E+00  0.00000000E+00  0.00000000E+00
  0.00000000E+00  0.00000000E+00  0.00000000E+00
  0.00000000E+00  0.00000000E+00  0.00000000E+00
  0.00000000E+00  0.00000000E+00  0.00000000E+00
  0.00000000E+00  0.00000000E+00  0.00000000E+00
  0.00000000E+00  0.00000000E+00  0.00000000E+00
  0.00000000E+00  0.00000000E+00  0.00000000E+00
  0.00000000E+00  0.00000000E+00  0.00000000E+00
  0.00000000E+00  0.00000000E+00  0.00000000E+00
  0.00000000E+00  0.00000000E+00  0.00000000E+00
  0.00000000E+00  0.00000000E+00  0.00000000E+00
  0.00000000E+00  0.00000000E+00  0.00000000E+00
  0.00000000E+00  0.00000000E+00  0.00000000E+00
  0.00000000E+00  0.00000000E+00  0.00000000E+00
  0.00000000E+00  0.00000000E+00  0.00000000E+00
  0.00000000E+00  0.00000000E+00  0.00000000E+00
  0.00000000E+00  0.00000000E+00  0.00000000E+00
  0.00000000E+00  0.00000000E+00  0.00000000E+00
  0.00000000E+00  0.00000000E+00  0.00000000E+00
  0.00000000E+00  0.00000000E+00  0.00000000E+00
  0.00000000E+00  0.00000000E+00  0.00000000E+00
  0.00000000E+00  0.00000000E+00  0.00000000E+00
  0.00000000E+00  0.00000000E+00  0.00000000E+00
  0.00000000E+00  0.00000000E+00  0.00000000E+00
  0.00000000E+00  0.00000000E+00  0.00000000E+00
  0.00000000E+00  0.00000000E+00  0.00000000E+00
  0.00000000E+00  0.00000000E+00  0.00000000E+00
  0.00000000E+00  0.00000000E+00  0.00000000E+00
  0.00000000E+00  0.00000000E+00  0.00000000E+00
  0.00000000E+00  0.00000000E+00  0.00000000E+00
  0.00000000E+00  0.00000000E+00  0.00000000E+00
  0.00000000E+00  0.00000000E+00  0.00000000E+00
  0.00000000E+00  0.00000000E+00  0.00000000E+00
  0.00000000E+00  0.00000000E+00  0.00000000E+00
  0.00000000E+00  0.00000000E+00  0.00000000E+00
  0.00000000E+00  0.00000000E+00  0.00000000E+00
