kk
 1.0000000000000000
     0.0000000000000000   10.9373336906932952   10.9373336906932952
    10.9373336906932952    0.0000000000000000   10.9373336906932952
    10.9373336906932952   10.9373336906932952    0.0000000000000000
 128
Direct
  0.0038233645552030  0.9940059560906493  0.9958354298355714
  0.2457463654546622  0.9960208533670107  0.9933417794683708
  0.5224696988059643  0.9956429136382750  0.9931130193489729
  0.7551825264316413  0.9935891503851495  0.9957813698652644
  0.9973703714907375  0.2495397169156078  0.0017002712659091
  0.2463091390035367  0.2476863928003016  0.9997728779260803
  0.5074482762278564  0.2444794017264384  0.0018449741706318
  0.7438282130562669  0.2495046523557478  0.0163668570212027
  0.9988111866229176  0.5004979134169485  0.9981711687648634
  0.2460871944346975  0.5038344217364851  0.9959005267975199
  0.5024229806381406  0.4916836565301565  0.9957586839224312
  0.7499460713796450  0.4970903514138168  0.0065105738500031
  0.0097478812263420  0.7409182557245462  0.9977134980721476
  0.2467832099811952  0.7508067823084802  0.9990484431114763
  0.4968700476168217  0.7503087836468967  0.9951050740095813
  0.7480518631639429  0.7472631680240717  0.0029915916348879
  0.9877075078651307  0.9880714223906886  0.2541733806316495
  0.2445238802408086  0.0101592671902427  0.2572650444856178
  0.5017654126826216  0.0033054159819754  0.2478703107417831
  0.7450432095947265  0.9975181308534848  0.2492053342492938
  0.9947897592858271  0.2400502965723242  0.2569242575401951
  0.2489263382509971  0.2625117630570793  0.2526155727357031
  0.5044155493300750  0.2566987747964657  0.2455283617557003
  0.7515579813831019  0.2573015444401763  0.2485797866579016
  0.9987632458284418  0.5024869038711743  0.2459979389740161
  0.2429537811215604  0.4985352778868674  0.2400885520496924
  0.4972073871246504  0.4996914630471612  0.2413308128874434
  0.7517502763116275  0.4954092980647236  0.2498941932617451
  0.9975625377747569  0.7386851184505284  0.2647687437766496
  0.2450284225417812  0.7524765216124851  0.2362861823174311
  0.4993806527484961  0.7614803356775490  0.2404972389442031
  0.7494640549832352  0.7591972777530496  0.2461951479911514
  0.9950094436437009  0.0050233177246332  0.4987995063609817
  0.2520823852027164  0.9931968697369121  0.5184080377930719
  0.4927218973682054  0.9915468664298677  0.5003848977648359
  0.7591045147185818  0.0095930484717886  0.4976918390121011
  0.9983956095081593  0.2507692019684632  0.4983919419175911
  0.2620523100969968  0.2511031524729327  0.4955235168787792
  0.4942437159966778  0.2551394587673205  0.4975460712722872
  0.7402604910849444  0.2544810318912611  0.5006614156481758
  0.0041253175336339  0.4979789713924966  0.4910476314688066
  0.2577369706029294  0.4898632181854268  0.4994191077053724
  0.5104014442512114  0.4934294953669193  0.4886019612752790
  0.7450019586122455  0.4926959582920963  0.5072655674634168
  0.0063198984231583  0.7605505007960573  0.4922229674075701
  0.2508635224134657  0.7451171295284664  0.4978377475022132
  0.5047449730379777  0.7523603848304506  0.4880944757218669
  0.7541698178486403  0.7455999331730571  0.5094306260612141
  0.0023577921944016  0.9989408589740066  0.7426224531751033
  0.2395882622865514  0.0038111056097721  0.7603217459562169
  0.5173925267178746  0.9916362134174888  0.7555231008982838
  0.7457469119178730  0.0009908754561658  0.7501977807452782
  0.9934375847224093  0.2456146073482748  0.7591307878991107
  0.2519153860873917  0.2489356709104328  0.7583533605577962
  0.4935476637827706  0.2578537329538344  0.7474163693474168
  0.7631796719831979  0.2498139814435255  0.7401913153774176
  0.9904454836875188  0.4975519561983449  0.7644515824464408
  0.2554662882398003  0.4987037347164548  0.7458975461873772
  0.4985386248697237  0.5008970099808780  0.7553841837760439
  0.7586612979986542  0.4974148475163570  0.7379475339802001
  0.9943036716069019  0.7545787083285881  0.7598176104073260
  0.2504512253115610  0.7491919970651917  0.7467704421919018
  0.5058978022080862  0.7406546841752606  0.7506484301759168
  0.7618380732986365  0.7393046266963119  0.7573747610056888
  0.0584929935638968  0.0616839502863918  0.0625018832675558
  0.3029845711128600  0.0636727107578104  0.0643157901960743
  0.5641082944732181  0.0665720538506026  0.0628186289914640
  0.8255180731344719  0.0574319677886264  0.0581317333984619
  0.0720658018234101  0.3180425333344086  0.0556007362312804
  0.3162455080154885  0.3065572305507152  0.0692234247209884
  0.5583371039576378  0.3112823166527371  0.0677743567757763
  0.8120988061871405  0.3187277057247253  0.0628456881513577
  0.0543616593614402  0.5525543411209453  0.0666624611076529
  0.3014043566105102  0.5575848001696778  0.0683740319182232
  0.5680110996321630  0.5702521680208249  0.0535500368499344
  0.8104652407309548  0.5672661841190298  0.0682593119158346
  0.0629350904424780  0.8168878965954685  0.0772388817192668
  0.3018170898682758  0.8136423492155737  0.0638423083279685
  0.5587951657883147  0.8157641780676634  0.0649573367589938
  0.8147322683541589  0.8150552490003488  0.0570160860789447
  0.0546860760723115  0.0597354998449144  0.3107247090057396
  0.2972385617601140  0.0816584189554898  0.3017771141813835
  0.5665776565490159  0.0644552968622438  0.3091170871479703
  0.8115645106219435  0.0622001762887294  0.3134043407344120
  0.0617355545935911  0.3114292580632280  0.3158718741324660
  0.3194170064983556  0.3148515193005665  0.3189549218126038
  0.5578882437445828  0.3162993597647430  0.3237029291742580
  0.8106821315378947  0.3197728339580972  0.3166009842337807
  0.0656846150945217  0.5510036205358673  0.3216196235424066
  0.3089451798490048  0.5745222096498338  0.3115585424143468
  0.5661925626689099  0.5679991828176914  0.3097174175851229
  0.8050671022702064  0.5700790310575273  0.3160575987673893
  0.0589175703470809  0.8021297249033333  0.3148412152373696
  0.3018189459597544  0.8254346288364073  0.3175467752378051
  0.5538065496789856  0.8268718113599682  0.3052438592901107
  0.8123425624480576  0.8091197101022473  0.3097534083783499
  0.0722229113035756  0.0527421282124927  0.5624981322145426
  0.3092562623298021  0.0627645272610536  0.5694711447297429
  0.5662665068709057  0.0672804610395913  0.5634166786102502
  0.8103882638818275  0.0692820703372272  0.5634312721352892
  0.0563882338442974  0.3038337518086781  0.5801587804749182
  0.3202195124673787  0.3027174205451424  0.5529771273608949
  0.5643453771223171  0.3077379547118262  0.5729661629483551
  0.7983661132974255  0.3150143603388373  0.5646489390641998
  0.0547280782299704  0.5672664194280588  0.5585996249377189
  0.3175098823110573  0.5601326756813561  0.5591839237859301
  0.5498010543825120  0.5711361081864793  0.5591649881598429
  0.8064296288123263  0.5641371548351919  0.5673978338255351
  0.0739044562442380  0.8094552164489475  0.5513722391272633
  0.3139667392528596  0.8145796076394690  0.5579849010465399
  0.5722149709157917  0.8154315929730406  0.5566744195796784
  0.8055799586515434  0.8209270557610997  0.5637469368269422
  0.0595030488030833  0.0709170360087060  0.8036349800426271
  0.3192118116075338  0.0646162180517055  0.8143747264636080
  0.5490980342427836  0.0717039047675518  0.8202350805758942
  0.8213509282593047  0.0464341501984323  0.8193959366583867
  0.0686942493021716  0.3154256074748753  0.8030826520166292
  0.3120783444450304  0.3134524828948703  0.8064630721906845
  0.5660615551767932  0.3069221919055200  0.8021142127601284
  0.8101934646672115  0.3181023355040176  0.8049316690248357
  0.0651053063927195  0.5480880764675747  0.8217022834380457
  0.3071905651752647  0.5675979449223505  0.8172842617729610
  0.5661639882004286  0.5577371474386099  0.8127798355532049
  0.8101053557727331  0.5682136957010586  0.8108374740986396
  0.0654415510992114  0.8127768905150609  0.8098244842303177
  0.3315291960242135  0.8068347195794593  0.8079223109249953
  0.5701866141681295  0.8062872543468775  0.8036879518972344
  0.8121188654469534  0.8039461225198380  0.8259884998901814
