kk                                      
   1.00000000000000     
     0.0000000000000000   10.9373336906932952   10.9373336906932952
    10.9373336906932952    0.0000000000000000   10.9373336906932952
    10.9373336906932952   10.9373336906932952    0.0000000000000000
   Si
   128
Direct
  0.0103254581077650  0.9895035450828686  0.0047127053560700
  0.2492690557366330  0.0100692363335497  0.0048206455539415
  0.5108020994900357  0.9940568861218466  0.0015648295704835
  0.7386396149981707  0.9992213441264326  0.0032870556674354
  0.9986544210989763  0.2534652080467552  0.0008029159863270
  0.2559650814304533  0.2438720261569145  0.0039295628264853
  0.4940305720052365  0.2545025095008384  0.9935919641110047
  0.7468597075331971  0.2402286684389097  0.0028016659346335
  0.9946816970263228  0.5000313921387374  0.0042492869922270
  0.2639665384723173  0.5071601509198089  0.9933822858692594
  0.5045786642611176  0.4984185367194627  0.0025482670653432
  0.7451843675989167  0.4933100942457287  0.0041866549414848
  0.9897372925545511  0.7622257329508173  0.0031523607558626
  0.2560285042105193  0.7380815023000338  0.0133003841624344
  0.4949139501828625  0.7633378127531643  0.0057539039194978
  0.7624855056789173  0.7505676623625277  0.9933523254799326
  0.9973914269236914  0.0115195419795455  0.2475802053815812
  0.2483017931741287  0.0055981114836214  0.2437252417766373
  0.4909417528096824  0.0028599640619689  0.2584908247710302
  0.7500057547538077  0.0092200616444416  0.2490703726137795
  0.0163598726921563  0.2329534169083729  0.2525565475193119
  0.2609973633035594  0.2541981426924664  0.2426447455237337
  0.4936311529492272  0.2418417210870274  0.2675033065498127
  0.7504766506205556  0.2450755345505158  0.2480861750865841
  0.0043145334411960  0.4986889936442864  0.2436177155904460
  0.2488860888052642  0.4960520262750876  0.2532002985427155
  0.5022548367726785  0.4985956827372888  0.2525163144072238
  0.7445235494452831  0.5165459449103693  0.2467301709692435
  0.0087314647860239  0.7599529856845848  0.2394501026045646
  0.2514526215580375  0.7526437777429749  0.2560011353515677
  0.5101290309267412  0.7433822408677884  0.2481515943443924
  0.7533738029346821  0.7434074633488237  0.2481079212092112
  0.0101353799575463  0.9863903602686648  0.4973609705064987
  0.2510485522017873  0.0052348408086758  0.4925118253570702
  0.5051689835092361  0.9961785574768740  0.4954918578514906
  0.7561231793002392  0.0024837784992684  0.4973323760308901
  0.0015400679933251  0.2435924033965762  0.4998360748740325
  0.2492104716158821  0.2453304797840801  0.4949702013666126
  0.4943735799477906  0.2631802533242649  0.4880480771245743
  0.7425364596722730  0.2467874556243288  0.4915979789948963
  0.0066733557065461  0.4939249604907943  0.4956258779036702
  0.2513493860415110  0.5069350214219739  0.4943214654233685
  0.4902104334815434  0.5021811258877946  0.5032323297213992
  0.7517929423661087  0.4990951952340694  0.4924656832760235
  0.0217196768395880  0.7490117104038347  0.4913972912875266
  0.2543134737250838  0.7471582390717160  0.4925557669362490
  0.4998519344921064  0.7540235100501178  0.5023176149050954
  0.7543190619649565  0.7510548814093028  0.4858188201840434
  0.9995580916591038  0.9902181863007584  0.7551440898181454
  0.2543779476851640  0.0087526046028188  0.7510240867446214
  0.5004884687520175  0.0055612397813860  0.7441365966657401
  0.7465794023959518  0.0022173545875930  0.7535493998582936
  0.9977795769819764  0.2529282336718381  0.7547192201060398
  0.2356733425189930  0.2514754106941623  0.7518416923610829
  0.5019788382831365  0.2669119831922941  0.7423382719434599
  0.7462477198302295  0.2524495805634004  0.7504356066627551
  0.0179667993103152  0.4908375641105280  0.7489485003698917
  0.2492071031982448  0.4991431227049929  0.7614311457296665
  0.4948787232059288  0.5065821806313480  0.7532538310728327
  0.7540771183051049  0.5034550282028150  0.7447196544145953
  0.0032562323781349  0.7588827886722811  0.7471122737782991
  0.2522535795153473  0.7517628842057889  0.7414209576459925
  0.5030502674085611  0.7418387516593938  0.7597065807033943
  0.7410047697039985  0.7447769802397985  0.7503115446320194
  0.0664877995404396  0.0557594932208332  0.0584954890830147
  0.3190468640202013  0.0579844651693762  0.0681637788169454
  0.5540592687285297  0.0667520144049334  0.0641460483293486
  0.7991577135930470  0.0604594938481853  0.0713459807666368
  0.0542868731891772  0.3138718888673253  0.0717270072297538
  0.3024633649776121  0.3238940444836160  0.0639809433208356
  0.5671139469795392  0.3132345666002507  0.0554123662580466
  0.8201363064634464  0.3038569015217902  0.0545776670203750
  0.0568094482660797  0.5774466020747440  0.0610695103389389
  0.3258854610946358  0.5672966872479179  0.0646215175228306
  0.5664436233887429  0.5486908931677519  0.0607882286606269
  0.8066341241161865  0.5519602829785768  0.0690961942633592
  0.0589438011918091  0.8192590059175586  0.0636014523703636
  0.3134360687911624  0.8092437764230453  0.0680217082043129
  0.5514287658122328  0.8067098062853688  0.0769855535057786
  0.8073056438455879  0.8135001429651751  0.0653348619745486
  0.0720680438012664  0.0442092090010249  0.3182685190841283
  0.2958585228985697  0.0638807238549006  0.3185007639062079
  0.5788624931967092  0.0538785657910807  0.3122535556502726
  0.8028156556060395  0.0724872006785731  0.3087687341072609
  0.0722748720978998  0.3088178614227175  0.2994942537161762
  0.3112130461862392  0.3167996962887045  0.3159927272365621
  0.5763993482666478  0.3041286736534943  0.2983199485884782
  0.8204594122688533  0.3063882356161614  0.3129607343662428
  0.0629475215780531  0.5627438343142117  0.3128506377568812
  0.3164716069563553  0.5645392904268078  0.3110808483551821
  0.5663469246381041  0.5649749508171951  0.3185494377796303
  0.8120489416390271  0.5643068933866147  0.3082782615775059
  0.0777362670510158  0.8042778101846721  0.3134798909942020
  0.3124054602365618  0.8184226315440668  0.3091388546390235
  0.5698811583512580  0.8089398461528319  0.2983582206340927
  0.8188223956073486  0.8113547640215231  0.3001146561433856
  0.0661313696081578  0.0633714298768666  0.5596816177239035
  0.3211512973061019  0.0471206095591867  0.5720186660156870
  0.5675225958957739  0.0682615967298474  0.5530617259850032
  0.8139060264670732  0.0722978959122216  0.5668630120224236
  0.0649533912806888  0.3043800423654872  0.5609261906316405
  0.3101737046352895  0.3079424578549066  0.5650137483358364
  0.5664691720437247  0.3106570927464034  0.5677064117170190
  0.8269782586331544  0.3146943493151326  0.5576357539362959
  0.0699790192609768  0.5619722391805269  0.5604057386601298
  0.3074695805557823  0.5677920597398511  0.5693667737740782
  0.5639729197681689  0.5618195455103603  0.5610491304248342
  0.8170047751720588  0.5487324425673279  0.5642071444422854
  0.0656817637903515  0.8124861498412201  0.5520841886417216
  0.3222409387884113  0.8064814600512022  0.5547504062203572
  0.5750755180807587  0.8028801588600629  0.5624659334161990
  0.8174319333569358  0.8154098250262081  0.5592321690688635
  0.0660074752139224  0.0583561024766794  0.8117673424329936
  0.3140280673064026  0.0663709375851553  0.8229078891842221
  0.5560862022173154  0.0664316380733823  0.8071224650127178
  0.8097702230985035  0.0642229668462662  0.8154923930319882
  0.0653750689033359  0.2920468399472682  0.8212437376710184
  0.3112636392934434  0.3062003128062187  0.8139093009125418
  0.5616778378233391  0.3275430548284959  0.8049804038767263
  0.8174971068331729  0.3081943192071890  0.8196279223572631
  0.0567081332228980  0.5515627767780984  0.8312729893892694
  0.3125167594746898  0.5626724221146802  0.8174200135680891
  0.5588097648667514  0.5565629100207587  0.8118168717582464
  0.8050922074975517  0.5605973304317118  0.8218233768249945
  0.0800731081899286  0.8100308347020473  0.8234332552878385
  0.3251155566878126  0.8021494704686063  0.8121871914106791
  0.5712639370572816  0.8201852135469707  0.7950607424739218
  0.8147032120541482  0.8095366051870201  0.8086327029693408
 
  0.00000000E+00  0.00000000E+00  0.00000000E+00
  0.00000000E+00  0.00000000E+00  0.00000000E+00
  0.00000000E+00  0.00000000E+00  0.00000000E+00
  0.00000000E+00  0.00000000E+00  0.00000000E+00
  0.00000000E+00  0.00000000E+00  0.00000000E+00
  0.00000000E+00  0.00000000E+00  0.00000000E+00
  0.00000000E+00  0.00000000E+00  0.00000000E+00
  0.00000000E+00  0.00000000E+00  0.00000000E+00
  0.00000000E+00  0.00000000E+00  0.00000000E+00
  0.00000000E+00  0.00000000E+00  0.00000000E+00
  0.00000000E+00  0.00000000E+00  0.00000000E+00
  0.00000000E+00  0.00000000E+00  0.00000000E+00
  0.00000000E+00  0.00000000E+00  0.00000000E+00
  0.00000000E+00  0.00000000E+00  0.00000000E+00
  0.00000000E+00  0.00000000E+00  0.00000000E+00
  0.00000000E+00  0.00000000E+00  0.00000000E+00
  0.00000000E+00  0.00000000E+00  0.00000000E+00
  0.00000000E+00  0.00000000E+00  0.00000000E+00
  0.00000000E+00  0.00000000E+00  0.00000000E+00
  0.00000000E+00  0.00000000E+00  0.00000000E+00
  0.00000000E+00  0.00000000E+00  0.00000000E+00
  0.00000000E+00  0.00000000E+00  0.00000000E+00
  0.00000000E+00  0.00000000E+00  0.00000000E+00
  0.00000000E+00  0.00000000E+00  0.00000000E+00
  0.00000000E+00  0.00000000E+00  0.00000000E+00
  0.00000000E+00  0.00000000E+00  0.00000000E+00
  0.00000000E+00  0.00000000E+00  0.00000000E+00
  0.00000000E+00  0.00000000E+00  0.00000000E+00
  0.00000000E+00  0.00000000E+00  0.00000000E+00
  0.00000000E+00  0.00000000E+00  0.00000000E+00
  0.00000000E+00  0.00000000E+00  0.00000000E+00
  0.00000000E+00  0.00000000E+00  0.00000000E+00
  0.00000000E+00  0.00000000E+00  0.00000000E+00
  0.00000000E+00  0.00000000E+00  0.00000000E+00
  0.00000000E+00  0.00000000E+00  0.00000000E+00
  0.00000000E+00  0.00000000E+00  0.00000000E+00
  0.00000000E+00  0.00000000E+00  0.00000000E+00
  0.00000000E+00  0.00000000E+00  0.00000000E+00
  0.00000000E+00  0.00000000E+00  0.00000000E+00
  0.00000000E+00  0.00000000E+00  0.00000000E+00
  0.00000000E+00  0.00000000E+00  0.00000000E+00
  0.00000000E+00  0.00000000E+00  0.00000000E+00
  0.00000000E+00  0.00000000E+00  0.00000000E+00
  0.00000000E+00  0.00000000E+00  0.00000000E+00
  0.00000000E+00  0.00000000E+00  0.00000000E+00
  0.00000000E+00  0.00000000E+00  0.00000000E+00
  0.00000000E+00  0.00000000E+00  0.00000000E+00
  0.00000000E+00  0.00000000E+00  0.00000000E+00
  0.00000000E+00  0.00000000E+00  0.00000000E+00
  0.00000000E+00  0.00000000E+00  0.00000000E+00
  0.00000000E+00  0.00000000E+00  0.00000000E+00
  0.00000000E+00  0.00000000E+00  0.00000000E+00
  0.00000000E+00  0.00000000E+00  0.00000000E+00
  0.00000000E+00  0.00000000E+00  0.00000000E+00
  0.00000000E+00  0.00000000E+00  0.00000000E+00
  0.00000000E+00  0.00000000E+00  0.00000000E+00
  0.00000000E+00  0.00000000E+00  0.00000000E+00
  0.00000000E+00  0.00000000E+00  0.00000000E+00
  0.00000000E+00  0.00000000E+00  0.00000000E+00
  0.00000000E+00  0.00000000E+00  0.00000000E+00
  0.00000000E+00  0.00000000E+00  0.00000000E+00
  0.00000000E+00  0.00000000E+00  0.00000000E+00
  0.00000000E+00  0.00000000E+00  0.00000000E+00
  0.00000000E+00  0.00000000E+00  0.00000000E+00
  0.00000000E+00  0.00000000E+00  0.00000000E+00
  0.00000000E+00  0.00000000E+00  0.00000000E+00
  0.00000000E+00  0.00000000E+00  0.00000000E+00
  0.00000000E+00  0.00000000E+00  0.00000000E+00
  0.00000000E+00  0.00000000E+00  0.00000000E+00
  0.00000000E+00  0.00000000E+00  0.00000000E+00
  0.00000000E+00  0.00000000E+00  0.00000000E+00
  0.00000000E+00  0.00000000E+00  0.00000000E+00
  0.00000000E+00  0.00000000E+00  0.00000000E+00
  0.00000000E+00  0.00000000E+00  0.00000000E+00
  0.00000000E+00  0.00000000E+00  0.00000000E+00
  0.00000000E+00  0.00000000E+00  0.00000000E+00
  0.00000000E+00  0.00000000E+00  0.00000000E+00
  0.00000000E+00  0.00000000E+00  0.00000000E+00
  0.00000000E+00  0.00000000E+00  0.00000000E+00
  0.00000000E+00  0.00000000E+00  0.00000000E+00
  0.00000000E+00  0.00000000E+00  0.00000000E+00
  0.00000000E+00  0.00000000E+00  0.00000000E+00
  0.00000000E+00  0.00000000E+00  0.00000000E+00
  0.00000000E+00  0.00000000E+00  0.00000000E+00
  0.00000000E+00  0.00000000E+00  0.00000000E+00
  0.00000000E+00  0.00000000E+00  0.00000000E+00
  0.00000000E+00  0.00000000E+00  0.00000000E+00
  0.00000000E+00  0.00000000E+00  0.00000000E+00
  0.00000000E+00  0.00000000E+00  0.00000000E+00
  0.00000000E+00  0.00000000E+00  0.00000000E+00
  0.00000000E+00  0.00000000E+00  0.00000000E+00
  0.00000000E+00  0.00000000E+00  0.00000000E+00
  0.00000000E+00  0.00000000E+00  0.00000000E+00
  0.00000000E+00  0.00000000E+00  0.00000000E+00
  0.00000000E+00  0.00000000E+00  0.00000000E+00
  0.00000000E+00  0.00000000E+00  0.00000000E+00
  0.00000000E+00  0.00000000E+00  0.00000000E+00
  0.00000000E+00  0.00000000E+00  0.00000000E+00
  0.00000000E+00  0.00000000E+00  0.00000000E+00
  0.00000000E+00  0.00000000E+00  0.00000000E+00
  0.00000000E+00  0.00000000E+00  0.00000000E+00
  0.00000000E+00  0.00000000E+00  0.00000000E+00
  0.00000000E+00  0.00000000E+00  0.00000000E+00
  0.00000000E+00  0.00000000E+00  0.00000000E+00
  0.00000000E+00  0.00000000E+00  0.00000000E+00
  0.00000000E+00  0.00000000E+00  0.00000000E+00
  0.00000000E+00  0.00000000E+00  0.00000000E+00
  0.00000000E+00  0.00000000E+00  0.00000000E+00
  0.00000000E+00  0.00000000E+00  0.00000000E+00
  0.00000000E+00  0.00000000E+00  0.00000000E+00
  0.00000000E+00  0.00000000E+00  0.00000000E+00
  0.00000000E+00  0.00000000E+00  0.00000000E+00
  0.00000000E+00  0.00000000E+00  0.00000000E+00
  0.00000000E+00  0.00000000E+00  0.00000000E+00
  0.00000000E+00  0.00000000E+00  0.00000000E+00
  0.00000000E+00  0.00000000E+00  0.00000000E+00
  0.00000000E+00  0.00000000E+00  0.00000000E+00
  0.00000000E+00  0.00000000E+00  0.00000000E+00
  0.00000000E+00  0.00000000E+00  0.00000000E+00
  0.00000000E+00  0.00000000E+00  0.00000000E+00
  0.00000000E+00  0.00000000E+00  0.00000000E+00
  0.00000000E+00  0.00000000E+00  0.00000000E+00
  0.00000000E+00  0.00000000E+00  0.00000000E+00
  0.00000000E+00  0.00000000E+00  0.00000000E+00
  0.00000000E+00  0.00000000E+00  0.00000000E+00
  0.00000000E+00  0.00000000E+00  0.00000000E+00
  0.00000000E+00  0.00000000E+00  0.00000000E+00
  0.00000000E+00  0.00000000E+00  0.00000000E+00
