kk
 1.0000000000000000
     0.0000000000000000   10.9373336906932952   10.9373336906932952
    10.9373336906932952    0.0000000000000000   10.9373336906932952
    10.9373336906932952   10.9373336906932952    0.0000000000000000
 128
Direct
  0.0103254581077672  0.9895035450828665  0.0047127053560683
  0.2492690557366357  0.0100692363335462  0.0048206455539423
  0.5108020994900390  0.9940568861218446  0.0015648295704834
  0.7386396149981691  0.9992213441264355  0.0032870556674370
  0.9986544210989752  0.2534652080467578  0.0008029159863283
  0.2559650814304548  0.2438720261569150  0.0039295628264881
  0.4940305720052390  0.2545025095008376  0.9935919641110018
  0.7468597075331952  0.2402286684389114  0.0028016659346332
  0.9946816970263261  0.5000313921387383  0.0042492869922259
  0.2639665384723163  0.5071601509198099  0.9933822858692585
  0.5045786642611191  0.4984185367194648  0.0025482670653443
  0.7451843675989140  0.4933100942457296  0.0041866549414844
  0.9897372925545539  0.7622257329508161  0.0031523607558638
  0.2560285042105215  0.7380815023000366  0.0133003841624361
  0.4949139501828643  0.7633378127531619  0.0057539039194974
  0.7624855056789197  0.7505676623625260  0.9933523254799339
  0.9973914269236889  0.0115195419795489  0.2475802053815822
  0.2483017931741300  0.0055981114836181  0.2437252417766387
  0.4909417528096791  0.0028599640619696  0.2584908247710311
  0.7500057547538084  0.0092200616444410  0.2490703726137787
  0.0163598726921561  0.2329534169083746  0.2525565475193129
  0.2609973633035582  0.2541981426924654  0.2426447455237332
  0.4936311529492288  0.2418417210870286  0.2675033065498107
  0.7504766506205581  0.2450755345505183  0.2480861750865825
  0.0043145334411989  0.4986889936442863  0.2436177155904478
  0.2488860888052677  0.4960520262750852  0.2532002985427124
  0.5022548367726786  0.4985956827372882  0.2525163144072268
  0.7445235494452797  0.5165459449103700  0.2467301709692427
  0.0087314647860241  0.7599529856845821  0.2394501026045646
  0.2514526215580347  0.7526437777429779  0.2560011353515641
  0.5101290309267442  0.7433822408677854  0.2481515943443889
  0.7533738029346844  0.7434074633488251  0.2481079212092112
  0.0101353799575453  0.9863903602686632  0.4973609705065011
  0.2510485522017896  0.0052348408086781  0.4925118253570686
  0.5051689835092344  0.9961785574768764  0.4954918578514922
  0.7561231793002399  0.0024837784992682  0.4973323760308868
  0.0015400679933229  0.2435924033965739  0.4998360748740340
  0.2492104716158854  0.2453304797840796  0.4949702013666119
  0.4943735799477871  0.2631802533242647  0.4880480771245764
  0.7425364596722751  0.2467874556243272  0.4915979789948995
  0.0066733557065484  0.4939249604907922  0.4956258779036714
  0.2513493860415101  0.5069350214219769  0.4943214654233680
  0.4902104334815450  0.5021811258877931  0.5032323297213990
  0.7517929423661086  0.4990951952340720  0.4924656832760202
  0.0217196768395892  0.7490117104038345  0.4913972912875241
  0.2543134737250831  0.7471582390717185  0.4925557669362470
  0.4998519344921041  0.7540235100501153  0.5023176149050983
  0.7543190619649582  0.7510548814093023  0.4858188201840467
  0.9995580916591060  0.9902181863007581  0.7551440898181428
  0.2543779476851611  0.0087526046028154  0.7510240867446200
  0.5004884687520156  0.0055612397813891  0.7441365966657393
  0.7465794023959488  0.0022173545875924  0.7535493998582909
  0.9977795769819787  0.2529282336718389  0.7547192201060412
  0.2356733425189919  0.2514754106941650  0.7518416923610850
  0.5019788382831391  0.2669119831922911  0.7423382719434573
  0.7462477198302326  0.2524495805634030  0.7504356066627542
  0.0179667993103143  0.4908375641105286  0.7489485003698917
  0.2492071031982482  0.4991431227049901  0.7614311457296659
  0.4948787232059323  0.5065821806313453  0.7532538310728298
  0.7540771183051047  0.5034550282028148  0.7447196544145925
  0.0032562323781358  0.7588827886722788  0.7471122737783006
  0.2522535795153503  0.7517628842057869  0.7414209576459918
  0.5030502674085611  0.7418387516593933  0.7597065807033951
  0.7410047697039953  0.7447769802397992  0.7503115446320207
  0.0664877995404378  0.0557594932208305  0.0584954890830147
  0.3190468640202028  0.0579844651693763  0.0681637788169454
  0.5540592687285300  0.0667520144049303  0.0641460483293510
  0.7991577135930442  0.0604594938481866  0.0713459807666389
  0.0542868731891765  0.3138718888673251  0.0717270072297531
  0.3024633649776117  0.3238940444836144  0.0639809433208348
  0.5671139469795360  0.3132345666002518  0.0554123662580475
  0.8201363064634457  0.3038569015217894  0.0545776670203768
  0.0568094482660762  0.5774466020747405  0.0610695103389420
  0.3258854610946328  0.5672966872479175  0.0646215175228318
  0.5664436233887437  0.5486908931677504  0.0607882286606250
  0.8066341241161860  0.5519602829785758  0.0690961942633577
  0.0589438011918105  0.8192590059175590  0.0636014523703653
  0.3134360687911619  0.8092437764230473  0.0680217082043113
  0.5514287658122358  0.8067098062853713  0.0769855535057757
  0.8073056438455911  0.8135001429651728  0.0653348619745470
  0.0720680438012686  0.0442092090010239  0.3182685190841285
  0.2958585228985685  0.0638807238549033  0.3185007639062054
  0.5788624931967065  0.0538785657910830  0.3122535556502717
  0.8028156556060378  0.0724872006785739  0.3087687341072624
  0.0722748720978974  0.3088178614227198  0.2994942537161732
  0.3112130461862427  0.3167996962887054  0.3159927272365611
  0.5763993482666496  0.3041286736534947  0.2983199485884777
  0.8204594122688502  0.3063882356161581  0.3129607343662412
  0.0629475215780495  0.5627438343142122  0.3128506377568798
  0.3164716069563561  0.5645392904268087  0.3110808483551790
  0.5663469246381021  0.5649749508171938  0.3185494377796334
  0.8120489416390273  0.5643068933866177  0.3082782615775078
  0.0777362670510132  0.8042778101846719  0.3134798909942056
  0.3124054602365595  0.8184226315440686  0.3091388546390230
  0.5698811583512570  0.8089398461528333  0.2983582206340918
  0.8188223956073516  0.8113547640215220  0.3001146561433884
  0.0661313696081571  0.0633714298768633  0.5596816177239042
  0.3211512973061024  0.0471206095591874  0.5720186660156881
  0.5675225958957718  0.0682615967298500  0.5530617259850001
  0.8139060264670708  0.0722978959122221  0.5668630120224205
  0.0649533912806904  0.3043800423654867  0.5609261906316422
  0.3101737046352924  0.3079424578549034  0.5650137483358346
  0.5664691720437227  0.3106570927464034  0.5677064117170222
  0.8269782586331578  0.3146943493151345  0.5576357539362948
  0.0699790192609754  0.5619722391805275  0.5604057386601332
  0.3074695805557817  0.5677920597398501  0.5693667737740765
  0.5639729197681699  0.5618195455103576  0.5610491304248315
  0.8170047751720614  0.5487324425673253  0.5642071444422821
  0.0656817637903535  0.8124861498412208  0.5520841886417187
  0.3222409387884089  0.8064814600512044  0.5547504062203574
  0.5750755180807613  0.8028801588600594  0.5624659334161981
  0.8174319333569345  0.8154098250262083  0.5592321690688612
  0.0660074752139246  0.0583561024766826  0.8117673424329912
  0.3140280673064001  0.0663709375851585  0.8229078891842221
  0.5560862022173126  0.0664316380733801  0.8071224650127187
  0.8097702230985034  0.0642229668462656  0.8154923930319892
  0.0653750689033367  0.2920468399472694  0.8212437376710150
  0.3112636392934413  0.3062003128062176  0.8139093009125420
  0.5616778378233378  0.3275430548284986  0.8049804038767298
  0.8174971068331717  0.3081943192071857  0.8196279223572638
  0.0567081332228997  0.5515627767780952  0.8312729893892683
  0.3125167594746930  0.5626724221146818  0.8174200135680882
  0.5588097648667509  0.5565629100207581  0.8118168717582497
  0.8050922074975525  0.5605973304317138  0.8218233768249972
  0.0800731081899260  0.8100308347020483  0.8234332552878415
  0.3251155566878143  0.8021494704686054  0.8121871914106790
  0.5712639370572804  0.8201852135469705  0.7950607424739206
  0.8147032120541480  0.8095366051870206  0.8086327029693416
