kk                                      
   1.00000000000000     
     0.0000000000000000   10.9373336906932952   10.9373336906932952
    10.9373336906932952    0.0000000000000000   10.9373336906932952
    10.9373336906932952   10.9373336906932952    0.0000000000000000
   Si
   128
Direct
  0.9935876448467980  0.0014925838030493  0.0067741759049866
  0.2457084174571733  0.9983198887916771  0.0027698679646875
  0.4949832117404185  0.0113781300546023  0.9978978135334273
  0.7420175007581236  0.9911844859096135  0.0094495757026394
  0.0041420224491233  0.2578900515641678  0.9996906087379074
  0.2646065169160821  0.2578189762208396  0.9961292735941711
  0.4951949193591787  0.2535469615177632  0.9963570018445438
  0.7529156461795807  0.2477560783727881  0.9981405211101659
  0.9946951919971738  0.5139682901935103  0.9865363512841441
  0.2432945337327652  0.5096028649564204  0.9957723930442910
  0.4986426866307667  0.5015550485721434  0.9899099015893356
  0.7329153811000211  0.5043053453850348  0.0035327106057750
  0.9811283077288522  0.7560683992993447  0.0073271011248437
  0.2504559550860535  0.7591516640818057  0.9968001232889918
  0.4983854035388049  0.7430657794841622  0.0002213577807595
  0.7457514268144863  0.7560661347191413  0.9982453498308956
  0.9983971980531479  0.9963731895968451  0.2621033800632091
  0.2421477863898431  0.0023662619698754  0.2549588142201458
  0.5067578062035238  0.9996865132802881  0.2415412440204392
  0.7537434441585802  0.9984745657345186  0.2471571099968770
  0.0009986693893040  0.2507954620772921  0.2418375614797696
  0.2398521070297690  0.2557745370704865  0.2465808602808650
  0.4959511461533381  0.2550348232998587  0.2546716445626060
  0.7476195367648799  0.2571765678547067  0.2418959178585212
  0.9964009220709329  0.5054140396194455  0.2485452702029605
  0.2541391792057937  0.4953055261748460  0.2457887766909792
  0.5058924007463119  0.4968192352947085  0.2470660222907810
  0.7595255948106967  0.5145608061689941  0.2338451041611336
  0.0001496128989231  0.7388002022236861  0.2492688249792536
  0.2490979269708546  0.7592822956022403  0.2425550303407391
  0.4926767961099898  0.7404620365864645  0.2635198689350702
  0.7541216836407045  0.7413948668076173  0.2537305733160480
  0.9910330106589242  0.0027141564484978  0.4963393845818516
  0.2467684705205144  0.0040948973923634  0.5006324760448777
  0.5056868898189393  0.9975186445147060  0.4984175314612997
  0.7575989456408223  0.9982471452938384  0.4932041095992972
  0.9967732248465495  0.2457213052626841  0.4993942093420145
  0.2472961831103930  0.2482672032705722  0.4998682171923434
  0.5073478193687038  0.2454928138327688  0.5075572059830122
  0.7580747068434306  0.2625644134844478  0.4892823579079248
  0.0117627932618305  0.4954033285096671  0.5016889244231493
  0.2624199751597374  0.5007538077046405  0.4969117084407486
  0.5083635568256426  0.4933626675291336  0.4997698538062068
  0.7607549899567019  0.4951825017347034  0.4990056642386520
  0.9962125545360152  0.7597420236148338  0.4918270843071895
  0.2552311364498223  0.7481688683793237  0.5005127900025386
  0.4977813183861315  0.7486694573629364  0.4980673472172228
  0.7403402330667248  0.7595268136197006  0.4999084899838593
  0.0015323169561441  0.0061198747947415  0.7457987485769664
  0.2447748888052814  0.9998957516642832  0.7513701329025935
  0.4895511679813112  0.0064205781118574  0.7526798382155917
  0.7497608862480263  0.0072004173548805  0.7518262813758909
  0.0081793658467859  0.2524358931911763  0.7416400025509517
  0.2396627340558055  0.2624001615291647  0.7453212811387786
  0.4988249999476579  0.2525865592525420  0.7448440731680108
  0.7598961661917087  0.2609761223513090  0.7355295729262323
  0.0068258405816053  0.5064851151213858  0.7324729197137358
  0.2465966298872075  0.5008310645222736  0.7510073618211450
  0.5021481382975352  0.5066497528001364  0.7371080800524865
  0.7518737260359316  0.4978551073872239  0.7434689968191819
  0.0063359242512178  0.7467072471416003  0.7600611024570512
  0.2512100224385492  0.7523741793618512  0.7366971482815714
  0.4934606503561980  0.7453159758606915  0.7581624703646668
  0.7583590122469559  0.7464561395717624  0.7470819160915454
  0.0708431438243835  0.0698617281030351  0.0575928536254438
  0.3055030768900338  0.0591747869798454  0.0758574942489147
  0.5666768564162155  0.0658798697979606  0.0696555608897782
  0.8069821236040440  0.0633334244342763  0.0674100873366115
  0.0694584319379743  0.3117561889073741  0.0544018295867730
  0.3063776610979332  0.3246304743652573  0.0645837188684553
  0.5670491033506124  0.3047868945716914  0.0662308519752557
  0.8148196978050635  0.3094574539021266  0.0653340722737639
  0.0578143160647571  0.5714693226239476  0.0520252392953680
  0.3197688805893861  0.5558475310496220  0.0596688369168348
  0.5599709853306720  0.5594823353135041  0.0686534857165810
  0.8178079702086691  0.5586372276768117  0.0547115808110945
  0.0693742150732248  0.8203780643765981  0.0529308988580723
  0.3099841032663875  0.8170921745103783  0.0689155407432196
  0.5495734844287270  0.8172117516641606  0.0626162700078936
  0.8072241018545725  0.8121170189478164  0.0700305689178222
  0.0649353065921829  0.0632394116166139  0.3101543465943593
  0.3053020715712904  0.0658943011325022  0.3105183026571794
  0.5662876891832482  0.0716146696582030  0.3098197985862825
  0.8156523581017083  0.0645191012763817  0.3117934543754615
  0.0643818003087091  0.3147054960177940  0.3196764543436075
  0.2996861068715262  0.3213558047296701  0.3127248613054121
  0.5584053510093199  0.3184179966336913  0.3047421213304204
  0.8149507137161578  0.3131447365048317  0.3002722998753100
  0.0689253117402870  0.5564068417209214  0.3097389411667564
  0.3244628151011781  0.5591706082546324  0.3068795972755751
  0.5624443562045087  0.5504326354528146  0.3177809400260969
  0.8094092039855809  0.5641646932764459  0.3151642370663410
  0.0729468563637070  0.8171764269715069  0.3061166802350215
  0.3166190295075708  0.8033073458192703  0.3224809679141885
  0.5529271161400686  0.8125466992725308  0.3228649094535285
  0.8176403700848098  0.8147235528740495  0.3119365383976245
  0.0600780066350097  0.0652885379980574  0.5649495402832017
  0.3017685882582626  0.0602793844499701  0.5632303487860426
  0.5627239988929489  0.0599549108673401  0.5635982897749159
  0.8066431700943895  0.0573994760599490  0.5721046175646265
  0.0533224445901013  0.3117243868940136  0.5582115258070246
  0.3137972972586667  0.3135682441232106  0.5563174796824981
  0.5670790871011562  0.3138776387255575  0.5501498469589876
  0.8242947460992056  0.3023002355446778  0.5675171285736340
  0.0711086016366096  0.5696943073666745  0.5552972280955473
  0.3125417048586314  0.5704738459246030  0.5597112003997395
  0.5642695096270600  0.5571423533182269  0.5604575179003035
  0.8085861059948769  0.5616538097296129  0.5649426411736869
  0.0696110264199916  0.8209292915138562  0.5539087556214781
  0.3167181815907369  0.8058888608862986  0.5629478315466869
  0.5583208613920334  0.8126717803251253  0.5701082998322633
  0.8068526830292413  0.8171651566438669  0.5591555837386224
  0.0609475395357748  0.0562920790877826  0.8227131428235026
  0.3089755139112924  0.0754272982727358  0.7963691079646225
  0.5602162013812162  0.0571385101153083  0.8143354982951507
  0.8118565407834240  0.0676903918593794  0.8074557619085141
  0.0660299226274290  0.3095750182208619  0.8127933493719581
  0.3091176673072624  0.3082395564426292  0.8137400768089336
  0.5669591067319502  0.3153556789799126  0.8106893650638867
  0.8210178436253059  0.3217512901487183  0.8010860313326447
  0.0663112438676805  0.5635693428879449  0.8060993144309307
  0.3065943090205607  0.5700561881949682  0.7973063197109269
  0.5723771579080150  0.5591438819770431  0.8002393622343362
  0.7989151243896444  0.5533656188927409  0.8178011594766303
  0.0715064602917366  0.8211392806811091  0.8025669782400797
  0.3119956621145477  0.8142153099652703  0.8142660658507168
  0.5523956759854016  0.8155215405231502  0.8200206704737383
  0.8038756029547045  0.8187663442771651  0.8169270617573829
 
  0.00000000E+00  0.00000000E+00  0.00000000E+00
  0.00000000E+00  0.00000000E+00  0.00000000E+00
  0.00000000E+00  0.00000000E+00  0.00000000E+00
  0.00000000E+00  0.00000000E+00  0.00000000E+00
  0.00000000E+00  0.00000000E+00  0.00000000E+00
  0.00000000E+00  0.00000000E+00  0.00000000E+00
  0.00000000E+00  0.00000000E+00  0.00000000E+00
  0.00000000E+00  0.00000000E+00  0.00000000E+00
  0.00000000E+00  0.00000000E+00  0.00000000E+00
  0.00000000E+00  0.00000000E+00  0.00000000E+00
  0.00000000E+00  0.00000000E+00  0.00000000E+00
  0.00000000E+00  0.00000000E+00  0.00000000E+00
  0.00000000E+00  0.00000000E+00  0.00000000E+00
  0.00000000E+00  0.00000000E+00  0.00000000E+00
  0.00000000E+00  0.00000000E+00  0.00000000E+00
  0.00000000E+00  0.00000000E+00  0.00000000E+00
  0.00000000E+00  0.00000000E+00  0.00000000E+00
  0.00000000E+00  0.00000000E+00  0.00000000E+00
  0.00000000E+00  0.00000000E+00  0.00000000E+00
  0.00000000E+00  0.00000000E+00  0.00000000E+00
  0.00000000E+00  0.00000000E+00  0.00000000E+00
  0.00000000E+00  0.00000000E+00  0.00000000E+00
  0.00000000E+00  0.00000000E+00  0.00000000E+00
  0.00000000E+00  0.00000000E+00  0.00000000E+00
  0.00000000E+00  0.00000000E+00  0.00000000E+00
  0.00000000E+00  0.00000000E+00  0.00000000E+00
  0.00000000E+00  0.00000000E+00  0.00000000E+00
  0.00000000E+00  0.00000000E+00  0.00000000E+00
  0.00000000E+00  0.00000000E+00  0.00000000E+00
  0.00000000E+00  0.00000000E+00  0.00000000E+00
  0.00000000E+00  0.00000000E+00  0.00000000E+00
  0.00000000E+00  0.00000000E+00  0.00000000E+00
  0.00000000E+00  0.00000000E+00  0.00000000E+00
  0.00000000E+00  0.00000000E+00  0.00000000E+00
  0.00000000E+00  0.00000000E+00  0.00000000E+00
  0.00000000E+00  0.00000000E+00  0.00000000E+00
  0.00000000E+00  0.00000000E+00  0.00000000E+00
  0.00000000E+00  0.00000000E+00  0.00000000E+00
  0.00000000E+00  0.00000000E+00  0.00000000E+00
  0.00000000E+00  0.00000000E+00  0.00000000E+00
  0.00000000E+00  0.00000000E+00  0.00000000E+00
  0.00000000E+00  0.00000000E+00  0.00000000E+00
  0.00000000E+00  0.00000000E+00  0.00000000E+00
  0.00000000E+00  0.00000000E+00  0.00000000E+00
  0.00000000E+00  0.00000000E+00  0.00000000E+00
  0.00000000E+00  0.00000000E+00  0.00000000E+00
  0.00000000E+00  0.00000000E+00  0.00000000E+00
  0.00000000E+00  0.00000000E+00  0.00000000E+00
  0.00000000E+00  0.00000000E+00  0.00000000E+00
  0.00000000E+00  0.00000000E+00  0.00000000E+00
  0.00000000E+00  0.00000000E+00  0.00000000E+00
  0.00000000E+00  0.00000000E+00  0.00000000E+00
  0.00000000E+00  0.00000000E+00  0.00000000E+00
  0.00000000E+00  0.00000000E+00  0.00000000E+00
  0.00000000E+00  0.00000000E+00  0.00000000E+00
  0.00000000E+00  0.00000000E+00  0.00000000E+00
  0.00000000E+00  0.00000000E+00  0.00000000E+00
  0.00000000E+00  0.00000000E+00  0.00000000E+00
  0.00000000E+00  0.00000000E+00  0.00000000E+00
  0.00000000E+00  0.00000000E+00  0.00000000E+00
  0.00000000E+00  0.00000000E+00  0.00000000E+00
  0.00000000E+00  0.00000000E+00  0.00000000E+00
  0.00000000E+00  0.00000000E+00  0.00000000E+00
  0.00000000E+00  0.00000000E+00  0.00000000E+00
  0.00000000E+00  0.00000000E+00  0.00000000E+00
  0.00000000E+00  0.00000000E+00  0.00000000E+00
  0.00000000E+00  0.00000000E+00  0.00000000E+00
  0.00000000E+00  0.00000000E+00  0.00000000E+00
  0.00000000E+00  0.00000000E+00  0.00000000E+00
  0.00000000E+00  0.00000000E+00  0.00000000E+00
  0.00000000E+00  0.00000000E+00  0.00000000E+00
  0.00000000E+00  0.00000000E+00  0.00000000E+00
  0.00000000E+00  0.00000000E+00  0.00000000E+00
  0.00000000E+00  0.00000000E+00  0.00000000E+00
  0.00000000E+00  0.00000000E+00  0.00000000E+00
  0.00000000E+00  0.00000000E+00  0.00000000E+00
  0.00000000E+00  0.00000000E+00  0.00000000E+00
  0.00000000E+00  0.00000000E+00  0.00000000E+00
  0.00000000E+00  0.00000000E+00  0.00000000E+00
  0.00000000E+00  0.00000000E+00  0.00000000E+00
  0.00000000E+00  0.00000000E+00  0.00000000E+00
  0.00000000E+00  0.00000000E+00  0.00000000E+00
  0.00000000E+00  0.00000000E+00  0.00000000E+00
  0.00000000E+00  0.00000000E+00  0.00000000E+00
  0.00000000E+00  0.00000000E+00  0.00000000E+00
  0.00000000E+00  0.00000000E+00  0.00000000E+00
  0.00000000E+00  0.00000000E+00  0.00000000E+00
  0.00000000E+00  0.00000000E+00  0.00000000E+00
  0.00000000E+00  0.00000000E+00  0.00000000E+00
  0.00000000E+00  0.00000000E+00  0.00000000E+00
  0.00000000E+00  0.00000000E+00  0.00000000E+00
  0.00000000E+00  0.00000000E+00  0.00000000E+00
  0.00000000E+00  0.00000000E+00  0.00000000E+00
  0.00000000E+00  0.00000000E+00  0.00000000E+00
  0.00000000E+00  0.00000000E+00  0.00000000E+00
  0.00000000E+00  0.00000000E+00  0.00000000E+00
  0.00000000E+00  0.00000000E+00  0.00000000E+00
  0.00000000E+00  0.00000000E+00  0.00000000E+00
  0.00000000E+00  0.00000000E+00  0.00000000E+00
  0.00000000E+00  0.00000000E+00  0.00000000E+00
  0.00000000E+00  0.00000000E+00  0.00000000E+00
  0.00000000E+00  0.00000000E+00  0.00000000E+00
  0.00000000E+00  0.00000000E+00  0.00000000E+00
  0.00000000E+00  0.00000000E+00  0.00000000E+00
  0.00000000E+00  0.00000000E+00  0.00000000E+00
  0.00000000E+00  0.00000000E+00  0.00000000E+00
  0.00000000E+00  0.00000000E+00  0.00000000E+00
  0.00000000E+00  0.00000000E+00  0.00000000E+00
  0.00000000E+00  0.00000000E+00  0.00000000E+00
  0.00000000E+00  0.00000000E+00  0.00000000E+00
  0.00000000E+00  0.00000000E+00  0.00000000E+00
  0.00000000E+00  0.00000000E+00  0.00000000E+00
  0.00000000E+00  0.00000000E+00  0.00000000E+00
  0.00000000E+00  0.00000000E+00  0.00000000E+00
  0.00000000E+00  0.00000000E+00  0.00000000E+00
  0.00000000E+00  0.00000000E+00  0.00000000E+00
  0.00000000E+00  0.00000000E+00  0.00000000E+00
  0.00000000E+00  0.00000000E+00  0.00000000E+00
  0.00000000E+00  0.00000000E+00  0.00000000E+00
  0.00000000E+00  0.00000000E+00  0.00000000E+00
  0.00000000E+00  0.00000000E+00  0.00000000E+00
  0.00000000E+00  0.00000000E+00  0.00000000E+00
  0.00000000E+00  0.00000000E+00  0.00000000E+00
  0.00000000E+00  0.00000000E+00  0.00000000E+00
  0.00000000E+00  0.00000000E+00  0.00000000E+00
  0.00000000E+00  0.00000000E+00  0.00000000E+00
  0.00000000E+00  0.00000000E+00  0.00000000E+00
  0.00000000E+00  0.00000000E+00  0.00000000E+00
