KPOINTS File, automatically generated by KPPRA - aflow with Kpoints=128  [KPPRA=1]
0
Gamma
2 2 2
0 0 0
