kk
 1.0000000000000000
     0.0000000000000000   10.9373336906932952   10.9373336906932952
    10.9373336906932952    0.0000000000000000   10.9373336906932952
    10.9373336906932952   10.9373336906932952    0.0000000000000000
 128
Direct
  0.9935876448468005  0.0014925838030480  0.0067741759049877
  0.2457084174571721  0.9983198887916740  0.0027698679646843
  0.4949832117404199  0.0113781300546011  0.9978978135334262
  0.7420175007581216  0.9911844859096153  0.0094495757026405
  0.0041420224491214  0.2578900515641677  0.9996906087379068
  0.2646065169160798  0.2578189762208369  0.9961292735941684
  0.4951949193591819  0.2535469615177636  0.9963570018445408
  0.7529156461795807  0.2477560783727889  0.9981405211101638
  0.9946951919971725  0.5139682901935122  0.9865363512841454
  0.2432945337327680  0.5096028649564184  0.9957723930442910
  0.4986426866307646  0.5015550485721398  0.9899099015893386
  0.7329153811000204  0.5043053453850356  0.0035327106057744
  0.9811283077288538  0.7560683992993472  0.0073271011248415
  0.2504559550860525  0.7591516640818078  0.9968001232889885
  0.4983854035388076  0.7430657794841649  0.0002213577807622
  0.7457514268144880  0.7560661347191402  0.9982453498308977
  0.9983971980531493  0.9963731895968446  0.2621033800632108
  0.2421477863898408  0.0023662619698727  0.2549588142201468
  0.5067578062035216  0.9996865132802909  0.2415412440204372
  0.7537434441585829  0.9984745657345176  0.2471571099968777
  0.0009986693893021  0.2507954620772938  0.2418375614797709
  0.2398521070297701  0.2557745370704845  0.2465808602808638
  0.4959511461533352  0.2550348232998560  0.2546716445626068
  0.7476195367648781  0.2571765678547051  0.2418959178585179
  0.9964009220709297  0.5054140396194465  0.2485452702029629
  0.2541391792057965  0.4953055261748453  0.2457887766909802
  0.5058924007463114  0.4968192352947119  0.2470660222907815
  0.7595255948106964  0.5145608061689930  0.2338451041611340
  0.0001496128989212  0.7388002022236827  0.2492688249792530
  0.2490979269708524  0.7592822956022437  0.2425550303407380
  0.4926767961099928  0.7404620365864647  0.2635198689350730
  0.7541216836407023  0.7413948668076200  0.2537305733160502
  0.9910330106589245  0.0027141564484987  0.4963393845818541
  0.2467684705205124  0.0040948973923607  0.5006324760448778
  0.5056868898189379  0.9975186445147053  0.4984175314613000
  0.7575989456408188  0.9982471452938382  0.4932041095992963
  0.9967732248465490  0.2457213052626850  0.4993942093420142
  0.2472961831103944  0.2482672032705713  0.4998682171923428
  0.5073478193687027  0.2454928138327711  0.5075572059830143
  0.7580747068434304  0.2625644134844453  0.4892823579079241
  0.0117627932618273  0.4954033285096668  0.5016889244231512
  0.2624199751597395  0.5007538077046392  0.4969117084407495
  0.5083635568256420  0.4933626675291335  0.4997698538062071
  0.7607549899567021  0.4951825017347039  0.4990056642386510
  0.9962125545360164  0.7597420236148327  0.4918270843071896
  0.2552311364498246  0.7481688683793219  0.5005127900025386
  0.4977813183861350  0.7486694573629383  0.4980673472172236
  0.7403402330667225  0.7595268136197001  0.4999084899838628
  0.0015323169561430  0.0061198747947399  0.7457987485769679
  0.2447748888052788  0.9998957516642821  0.7513701329025920
  0.4895511679813140  0.0064205781118555  0.7526798382155916
  0.7497608862480282  0.0072004173548838  0.7518262813758900
  0.0081793658467828  0.2524358931911729  0.7416400025509526
  0.2396627340558032  0.2624001615291655  0.7453212811387820
  0.4988249999476574  0.2525865592525428  0.7448440731680088
  0.7598961661917094  0.2609761223513064  0.7355295729262337
  0.0068258405816027  0.5064851151213857  0.7324729197137347
  0.2465966298872076  0.5008310645222749  0.7510073618211446
  0.5021481382975370  0.5066497528001374  0.7371080800524835
  0.7518737260359306  0.4978551073872267  0.7434689968191832
  0.0063359242512174  0.7467072471416014  0.7600611024570539
  0.2512100224385523  0.7523741793618489  0.7366971482815746
  0.4934606503561997  0.7453159758606940  0.7581624703646680
  0.7583590122469563  0.7464561395717608  0.7470819160915455
  0.0708431438243844  0.0698617281030327  0.0575928536254440
  0.3055030768900370  0.0591747869798467  0.0758574942489165
  0.5666768564162162  0.0658798697979621  0.0696555608897777
  0.8069821236040419  0.0633334244342776  0.0674100873366143
  0.0694584319379778  0.3117561889073776  0.0544018295867714
  0.3063776610979337  0.3246304743652596  0.0645837188684553
  0.5670491033506113  0.3047868945716935  0.0662308519752533
  0.8148196978050620  0.3094574539021236  0.0653340722737614
  0.0578143160647548  0.5714693226239490  0.0520252392953659
  0.3197688805893838  0.5558475310496227  0.0596688369168340
  0.5599709853306741  0.5594823353135060  0.0686534857165781
  0.8178079702086697  0.5586372276768140  0.0547115808110917
  0.0693742150732217  0.8203780643765984  0.0529308988580737
  0.3099841032663886  0.8170921745103747  0.0689155407432224
  0.5495734844287237  0.8172117516641608  0.0626162700078959
  0.8072241018545724  0.8121170189478155  0.0700305689178236
  0.0649353065921804  0.0632394116166160  0.3101543465943610
  0.3053020715712904  0.0658943011324992  0.3105183026571801
  0.5662876891832480  0.0716146696582019  0.3098197985862821
  0.8156523581017098  0.0645191012763849  0.3117934543754629
  0.0643818003087112  0.3147054960177941  0.3196764543436048
  0.2996861068715264  0.3213558047296712  0.3127248613054102
  0.5584053510093204  0.3184179966336941  0.3047421213304231
  0.8149507137161548  0.3131447365048337  0.3002722998753106
  0.0689253117402862  0.5564068417209245  0.3097389411667558
  0.3244628151011811  0.5591706082546338  0.3068795972755745
  0.5624443562045063  0.5504326354528124  0.3177809400260962
  0.8094092039855834  0.5641646932764446  0.3151642370663405
  0.0729468563637039  0.8171764269715036  0.3061166802350211
  0.3166190295075680  0.8033073458192734  0.3224809679141867
  0.5529271161400667  0.8125466992725331  0.3228649094535274
  0.8176403700848115  0.8147235528740482  0.3119365383976221
  0.0600780066350108  0.0652885379980591  0.5649495402831984
  0.3017685882582615  0.0602793844499707  0.5632303487860432
  0.5627239988929511  0.0599549108673400  0.5635982897749131
  0.8066431700943925  0.0573994760599474  0.5721046175646234
  0.0533224445901000  0.3117243868940107  0.5582115258070263
  0.3137972972586668  0.3135682441232074  0.5563174796824973
  0.5670790871011567  0.3138776387255577  0.5501498469589859
  0.8242947460992051  0.3023002355446743  0.5675171285736306
  0.0711086016366094  0.5696943073666768  0.5552972280955493
  0.3125417048586314  0.5704738459246002  0.5597112003997392
  0.5642695096270569  0.5571423533182256  0.5604575179003055
  0.8085861059948796  0.5616538097296102  0.5649426411736858
  0.0696110264199906  0.8209292915138551  0.5539087556214778
  0.3167181815907336  0.8058888608862979  0.5629478315466881
  0.5583208613920315  0.8126717803251235  0.5701082998322635
  0.8068526830292416  0.8171651566438660  0.5591555837386221
  0.0609475395357745  0.0562920790877834  0.8227131428235054
  0.3089755139112932  0.0754272982727363  0.7963691079646233
  0.5602162013812192  0.0571385101153105  0.8143354982951514
  0.8118565407834225  0.0676903918593814  0.8074557619085118
  0.0660299226274304  0.3095750182208619  0.8127933493719615
  0.3091176673072631  0.3082395564426296  0.8137400768089366
  0.5669591067319535  0.3153556789799100  0.8106893650638893
  0.8210178436253067  0.3217512901487217  0.8010860313326449
  0.0663112438676792  0.5635693428879445  0.8060993144309320
  0.3065943090205631  0.5700561881949650  0.7973063197109279
  0.5723771579080138  0.5591438819770466  0.8002393622343377
  0.7989151243896477  0.5533656188927444  0.8178011594766333
  0.0715064602917343  0.8211392806811106  0.8025669782400808
  0.3119956621145454  0.8142153099652687  0.8142660658507190
  0.5523956759854013  0.8155215405231485  0.8200206704737354
  0.8038756029547034  0.8187663442771657  0.8169270617573819
