kk                                      
   1.00000000000000     
     0.0000000000000000   10.9373336906932952   10.9373336906932952
    10.9373336906932952    0.0000000000000000   10.9373336906932952
    10.9373336906932952   10.9373336906932952    0.0000000000000000
   Si
   128
Direct
  0.9909838785644070  0.9953582237666510  0.0134097889711953
  0.2524567203322192  0.0005502606029566  0.9988723276514122
  0.5076496866769133  0.9962772453135003  0.9954819347527106
  0.7465668064335134  0.9903604850784902  0.0072819954822023
  0.9938851759824416  0.2507752423040657  0.9994448600965598
  0.2543740644839545  0.2477532083760963  0.0073823534008071
  0.4877651189489285  0.2596156387451458  0.0041591217573966
  0.7563460823985508  0.2514810471870135  0.0042839708068101
  0.9926156887687938  0.4916090939613085  0.0112968525135031
  0.2545325817253143  0.5062950231441903  0.9925486544016238
  0.4988564359899925  0.4989545186500663  0.9927071435672943
  0.7553689961712919  0.5012211911915827  0.0045774685563202
  0.0084048884180490  0.7539430737034749  0.9999798448937653
  0.2430870422485896  0.7653536422769420  0.0034444906340312
  0.5077503688771614  0.7528330658513198  0.9946282885221436
  0.7511309987577377  0.7431332524139052  0.0189633386736716
  0.9977987922227385  0.9946556054180888  0.2593720522251104
  0.2409125894036279  0.9954937063827103  0.2507921627980210
  0.4962237976430544  0.0029700994618196  0.2479908630393766
  0.7580017917139017  0.9968528648993882  0.2486795723736677
  0.0087323621200355  0.2405793321672505  0.2502300377306597
  0.2453123823595433  0.2475507347269641  0.2618159187267750
  0.4947324068263015  0.2453045277832757  0.2489609329937750
  0.7474545020758114  0.2633813184057132  0.2466091252024256
  0.0039677219056387  0.4955911254572314  0.2464079801585726
  0.2495747579792962  0.4956001279201416  0.2542069184276627
  0.4945826058476612  0.5027950609282641  0.2397751932081746
  0.7463307642733312  0.5022013377826511  0.2517481602001155
  0.0034660995335187  0.7379961749187345  0.2495465067988150
  0.2482390170788946  0.7493948420047474  0.2483385187351388
  0.5053688518743726  0.7565210639257387  0.2433545574342872
  0.7520563030795770  0.7429210073492243  0.2572555636806300
  0.0153646537942933  0.9904001578220871  0.4940824140404985
  0.2647474682654121  0.9994805031064828  0.4931071639440674
  0.4985845806222429  0.0003508470389306  0.4844593748926513
  0.7427770871757673  0.9991979512164804  0.5037778178597492
  0.9925539564581456  0.2549520037752728  0.4988953454335530
  0.2437040124018779  0.2484571898655688  0.5048171003123869
  0.5158540294124023  0.2499169414492002  0.4899702807635506
  0.7494610883704951  0.2598143617347688  0.4935484581588909
  0.9959344699202717  0.5036235905310704  0.4975065911928169
  0.2510023418374061  0.5037531652759810  0.4908794197057489
  0.4998059097559207  0.4889832009337240  0.5015123158446073
  0.7523421053943409  0.5007963933238955  0.4945742883533910
  0.9913849372527608  0.7581597298410472  0.4975637649864595
  0.2524909165529650  0.7444956700261471  0.5097179370338836
  0.5111748100770939  0.7594851746990727  0.4893962758072163
  0.7618319091959833  0.7531676739725697  0.4886795207106616
  0.0116370966312545  0.9913120035076233  0.7409122180336567
  0.2572368740434570  0.9999082595078264  0.7541747032251394
  0.4944301574197283  0.0003772228360219  0.7400694752270951
  0.7531386435608312  0.0021264028667929  0.7481547685462289
  0.0024712420853774  0.2476054195455717  0.7441014876354970
  0.2531429827364633  0.2522208111423296  0.7530850915282343
  0.5071675745712838  0.2508647379588922  0.7448244616220236
  0.7542076363544510  0.2562114729042122  0.7523105368275225
  0.9889242103535594  0.5042313188152008  0.7545169647420522
  0.2517851739275017  0.5023129355884635  0.7514380974957646
  0.4898918705212836  0.5082681400085676  0.7529504947238763
  0.7495421173971479  0.4930621437990084  0.7431082401430231
  0.0014229838978608  0.7422818615606204  0.7542374777729322
  0.2469347971241191  0.7571634699356764  0.7541668819995380
  0.4988570679101372  0.7513070511692206  0.7521692191405833
  0.7479692762242749  0.7504370500278270  0.7524126620248168
  0.0668084647529952  0.0606294863104893  0.0583853374890779
  0.3172345527723124  0.0472651877120640  0.0696252365741472
  0.5576357430264096  0.0814373259093060  0.0600330253477068
  0.8255581944720731  0.0521420693270116  0.0530263955822008
  0.0595672677441215  0.3173047856008751  0.0667617024257652
  0.3075906064665546  0.3170618668163030  0.0738292532895173
  0.5604028237036687  0.3288100769599183  0.0550201477674932
  0.8104973991819406  0.3138508705682597  0.0675110734677560
  0.0576297352758246  0.5625265601628797  0.0657254567229515
  0.3201173310165260  0.5613394990521172  0.0541655617131696
  0.5546159960531085  0.5637729817893344  0.0618646240715961
  0.8146966736972701  0.5691109778775143  0.0679063435968530
  0.0531919999760788  0.8223692864707104  0.0662029585327346
  0.3154910786667386  0.8168193118345854  0.0550610361944948
  0.5564602860260948  0.8156629606307746  0.0706772857640914
  0.8236036034666299  0.8144552139745684  0.0524651052126330
  0.0721256753098132  0.0586481441995659  0.3110834639244686
  0.3010521156702097  0.0676393694945148  0.3094397296445734
  0.5560122762110922  0.0655555350008754  0.3062360741142101
  0.8184958242280302  0.0564373843324688  0.3131317979254078
  0.0584591092073197  0.3129771775566610  0.3146832006260993
  0.3083142493211568  0.3140267912631742  0.3129408242345448
  0.5656017691311916  0.3263076408988752  0.3107239720314183
  0.8070898170694818  0.3193012125311157  0.3081378308944238
  0.0692361236436483  0.5529867207494377  0.3024422770048645
  0.3131294012607313  0.5645874273803173  0.3168271331351349
  0.5666130178156834  0.5529961391038540  0.3194575570692990
  0.8107437391734322  0.5739427434358078  0.3051697373014619
  0.0630595713864679  0.8046564238240990  0.3112724951953538
  0.3105965593405102  0.8119635747004352  0.3053967449440762
  0.5594834210539048  0.8219761536869115  0.3080098961699207
  0.8170119238138440  0.8081980245343416  0.3079459626818917
  0.0530379215712315  0.0782789131298429  0.5634708513764437
  0.3170443964612488  0.0674871084375113  0.5510188196419818
  0.5614622445484230  0.0633853149058723  0.5579035029721595
  0.8259972378137377  0.0573645069756239  0.5563006159669683
  0.0605689739948971  0.3095798705861768  0.5723625708772104
  0.3207687755968678  0.3153552841973948  0.5506551067065217
  0.5672953014000939  0.3129994674155867  0.5663265933328674
  0.8060797785606795  0.3170253560094380  0.5720333005989389
  0.0607650569820066  0.5657632365588015  0.5527932437321041
  0.2954480752221187  0.5731575098383601  0.5677396727258994
  0.5645588999365145  0.5505773354647587  0.5659526438113858
  0.8148628070323483  0.5687940421179007  0.5553324913525728
  0.0657521807875199  0.8090743889076251  0.5618439157819068
  0.3198200959523376  0.8040412235313354  0.5586673273309302
  0.5641880783590807  0.8109664853456025  0.5682801844225693
  0.8139789467498417  0.8074039593516176  0.5598748837232748
  0.0649497768140463  0.0553937005046734  0.8137667493173595
  0.3197763378812866  0.0589571781031850  0.8098519625569409
  0.5663060105789697  0.0511338630266849  0.8229099789836383
  0.8192800124482886  0.0642271775459378  0.8151062412345382
  0.0566756179592787  0.3116636989193751  0.8181681453752176
  0.3164503602023316  0.3098258621722962  0.8110870903065859
  0.5589803655481234  0.3224755487307149  0.8082681754275143
  0.8217000482569929  0.3050839151196598  0.8110612425489876
  0.0651272946634336  0.5613822748217103  0.8208655062978707
  0.3040166915821416  0.5694710119139899  0.8172715069106857
  0.5569171281241481  0.5618599347709150  0.8191097032472427
  0.8093879176165473  0.5600340685414196  0.8187013308274373
  0.0541759889733910  0.8092943235504535  0.8220187002817383
  0.3093241232190422  0.8117352379179223  0.8111669504264540
  0.5582234289903099  0.8109048709285815  0.8107679964029302
  0.8122197004723901  0.8067778777547048  0.8064125904909858
 
  0.00000000E+00  0.00000000E+00  0.00000000E+00
  0.00000000E+00  0.00000000E+00  0.00000000E+00
  0.00000000E+00  0.00000000E+00  0.00000000E+00
  0.00000000E+00  0.00000000E+00  0.00000000E+00
  0.00000000E+00  0.00000000E+00  0.00000000E+00
  0.00000000E+00  0.00000000E+00  0.00000000E+00
  0.00000000E+00  0.00000000E+00  0.00000000E+00
  0.00000000E+00  0.00000000E+00  0.00000000E+00
  0.00000000E+00  0.00000000E+00  0.00000000E+00
  0.00000000E+00  0.00000000E+00  0.00000000E+00
  0.00000000E+00  0.00000000E+00  0.00000000E+00
  0.00000000E+00  0.00000000E+00  0.00000000E+00
  0.00000000E+00  0.00000000E+00  0.00000000E+00
  0.00000000E+00  0.00000000E+00  0.00000000E+00
  0.00000000E+00  0.00000000E+00  0.00000000E+00
  0.00000000E+00  0.00000000E+00  0.00000000E+00
  0.00000000E+00  0.00000000E+00  0.00000000E+00
  0.00000000E+00  0.00000000E+00  0.00000000E+00
  0.00000000E+00  0.00000000E+00  0.00000000E+00
  0.00000000E+00  0.00000000E+00  0.00000000E+00
  0.00000000E+00  0.00000000E+00  0.00000000E+00
  0.00000000E+00  0.00000000E+00  0.00000000E+00
  0.00000000E+00  0.00000000E+00  0.00000000E+00
  0.00000000E+00  0.00000000E+00  0.00000000E+00
  0.00000000E+00  0.00000000E+00  0.00000000E+00
  0.00000000E+00  0.00000000E+00  0.00000000E+00
  0.00000000E+00  0.00000000E+00  0.00000000E+00
  0.00000000E+00  0.00000000E+00  0.00000000E+00
  0.00000000E+00  0.00000000E+00  0.00000000E+00
  0.00000000E+00  0.00000000E+00  0.00000000E+00
  0.00000000E+00  0.00000000E+00  0.00000000E+00
  0.00000000E+00  0.00000000E+00  0.00000000E+00
  0.00000000E+00  0.00000000E+00  0.00000000E+00
  0.00000000E+00  0.00000000E+00  0.00000000E+00
  0.00000000E+00  0.00000000E+00  0.00000000E+00
  0.00000000E+00  0.00000000E+00  0.00000000E+00
  0.00000000E+00  0.00000000E+00  0.00000000E+00
  0.00000000E+00  0.00000000E+00  0.00000000E+00
  0.00000000E+00  0.00000000E+00  0.00000000E+00
  0.00000000E+00  0.00000000E+00  0.00000000E+00
  0.00000000E+00  0.00000000E+00  0.00000000E+00
  0.00000000E+00  0.00000000E+00  0.00000000E+00
  0.00000000E+00  0.00000000E+00  0.00000000E+00
  0.00000000E+00  0.00000000E+00  0.00000000E+00
  0.00000000E+00  0.00000000E+00  0.00000000E+00
  0.00000000E+00  0.00000000E+00  0.00000000E+00
  0.00000000E+00  0.00000000E+00  0.00000000E+00
  0.00000000E+00  0.00000000E+00  0.00000000E+00
  0.00000000E+00  0.00000000E+00  0.00000000E+00
  0.00000000E+00  0.00000000E+00  0.00000000E+00
  0.00000000E+00  0.00000000E+00  0.00000000E+00
  0.00000000E+00  0.00000000E+00  0.00000000E+00
  0.00000000E+00  0.00000000E+00  0.00000000E+00
  0.00000000E+00  0.00000000E+00  0.00000000E+00
  0.00000000E+00  0.00000000E+00  0.00000000E+00
  0.00000000E+00  0.00000000E+00  0.00000000E+00
  0.00000000E+00  0.00000000E+00  0.00000000E+00
  0.00000000E+00  0.00000000E+00  0.00000000E+00
  0.00000000E+00  0.00000000E+00  0.00000000E+00
  0.00000000E+00  0.00000000E+00  0.00000000E+00
  0.00000000E+00  0.00000000E+00  0.00000000E+00
  0.00000000E+00  0.00000000E+00  0.00000000E+00
  0.00000000E+00  0.00000000E+00  0.00000000E+00
  0.00000000E+00  0.00000000E+00  0.00000000E+00
  0.00000000E+00  0.00000000E+00  0.00000000E+00
  0.00000000E+00  0.00000000E+00  0.00000000E+00
  0.00000000E+00  0.00000000E+00  0.00000000E+00
  0.00000000E+00  0.00000000E+00  0.00000000E+00
  0.00000000E+00  0.00000000E+00  0.00000000E+00
  0.00000000E+00  0.00000000E+00  0.00000000E+00
  0.00000000E+00  0.00000000E+00  0.00000000E+00
  0.00000000E+00  0.00000000E+00  0.00000000E+00
  0.00000000E+00  0.00000000E+00  0.00000000E+00
  0.00000000E+00  0.00000000E+00  0.00000000E+00
  0.00000000E+00  0.00000000E+00  0.00000000E+00
  0.00000000E+00  0.00000000E+00  0.00000000E+00
  0.00000000E+00  0.00000000E+00  0.00000000E+00
  0.00000000E+00  0.00000000E+00  0.00000000E+00
  0.00000000E+00  0.00000000E+00  0.00000000E+00
  0.00000000E+00  0.00000000E+00  0.00000000E+00
  0.00000000E+00  0.00000000E+00  0.00000000E+00
  0.00000000E+00  0.00000000E+00  0.00000000E+00
  0.00000000E+00  0.00000000E+00  0.00000000E+00
  0.00000000E+00  0.00000000E+00  0.00000000E+00
  0.00000000E+00  0.00000000E+00  0.00000000E+00
  0.00000000E+00  0.00000000E+00  0.00000000E+00
  0.00000000E+00  0.00000000E+00  0.00000000E+00
  0.00000000E+00  0.00000000E+00  0.00000000E+00
  0.00000000E+00  0.00000000E+00  0.00000000E+00
  0.00000000E+00  0.00000000E+00  0.00000000E+00
  0.00000000E+00  0.00000000E+00  0.00000000E+00
  0.00000000E+00  0.00000000E+00  0.00000000E+00
  0.00000000E+00  0.00000000E+00  0.00000000E+00
  0.00000000E+00  0.00000000E+00  0.00000000E+00
  0.00000000E+00  0.00000000E+00  0.00000000E+00
  0.00000000E+00  0.00000000E+00  0.00000000E+00
  0.00000000E+00  0.00000000E+00  0.00000000E+00
  0.00000000E+00  0.00000000E+00  0.00000000E+00
  0.00000000E+00  0.00000000E+00  0.00000000E+00
  0.00000000E+00  0.00000000E+00  0.00000000E+00
  0.00000000E+00  0.00000000E+00  0.00000000E+00
  0.00000000E+00  0.00000000E+00  0.00000000E+00
  0.00000000E+00  0.00000000E+00  0.00000000E+00
  0.00000000E+00  0.00000000E+00  0.00000000E+00
  0.00000000E+00  0.00000000E+00  0.00000000E+00
  0.00000000E+00  0.00000000E+00  0.00000000E+00
  0.00000000E+00  0.00000000E+00  0.00000000E+00
  0.00000000E+00  0.00000000E+00  0.00000000E+00
  0.00000000E+00  0.00000000E+00  0.00000000E+00
  0.00000000E+00  0.00000000E+00  0.00000000E+00
  0.00000000E+00  0.00000000E+00  0.00000000E+00
  0.00000000E+00  0.00000000E+00  0.00000000E+00
  0.00000000E+00  0.00000000E+00  0.00000000E+00
  0.00000000E+00  0.00000000E+00  0.00000000E+00
  0.00000000E+00  0.00000000E+00  0.00000000E+00
  0.00000000E+00  0.00000000E+00  0.00000000E+00
  0.00000000E+00  0.00000000E+00  0.00000000E+00
  0.00000000E+00  0.00000000E+00  0.00000000E+00
  0.00000000E+00  0.00000000E+00  0.00000000E+00
  0.00000000E+00  0.00000000E+00  0.00000000E+00
  0.00000000E+00  0.00000000E+00  0.00000000E+00
  0.00000000E+00  0.00000000E+00  0.00000000E+00
  0.00000000E+00  0.00000000E+00  0.00000000E+00
  0.00000000E+00  0.00000000E+00  0.00000000E+00
  0.00000000E+00  0.00000000E+00  0.00000000E+00
  0.00000000E+00  0.00000000E+00  0.00000000E+00
  0.00000000E+00  0.00000000E+00  0.00000000E+00
  0.00000000E+00  0.00000000E+00  0.00000000E+00
