kk
 1.0000000000000000
     0.0000000000000000   10.9373336906932952   10.9373336906932952
    10.9373336906932952    0.0000000000000000   10.9373336906932952
    10.9373336906932952   10.9373336906932952    0.0000000000000000
 128
Direct
  0.9909838785644093  0.9953582237666526  0.0134097889711946
  0.2524567203322186  0.0005502606029544  0.9988723276514145
  0.5076496866769127  0.9962772453134989  0.9954819347527094
  0.7465668064335109  0.9903604850784936  0.0072819954821996
  0.9938851759824417  0.2507752423040672  0.9994448600965570
  0.2543740644839552  0.2477532083760978  0.0073823534008101
  0.4877651189489270  0.2596156387451469  0.0041591217574000
  0.7563460823985497  0.2514810471870154  0.0042839708068103
  0.9926156887687942  0.4916090939613064  0.0112968525135047
  0.2545325817253113  0.5062950231441897  0.9925486544016215
  0.4988564359899947  0.4989545186500685  0.9927071435672969
  0.7553689961712944  0.5012211911915809  0.0045774685563215
  0.0084048884180458  0.7539430737034745  0.9999798448937655
  0.2430870422485915  0.7653536422769435  0.0034444906340279
  0.5077503688771632  0.7528330658513185  0.9946282885221427
  0.7511309987577411  0.7431332524139057  0.0189633386736712
  0.9977987922227393  0.9946556054180853  0.2593720522251134
  0.2409125894036300  0.9954937063827080  0.2507921627980235
  0.4962237976430540  0.0029700994618190  0.2479908630393771
  0.7580017917139029  0.9968528648993893  0.2486795723736710
  0.0087323621200369  0.2405793321672502  0.2502300377306630
  0.2453123823595409  0.2475507347269643  0.2618159187267768
  0.4947324068262996  0.2453045277832722  0.2489609329937780
  0.7474545020758124  0.2633813184057123  0.2466091252024236
  0.0039677219056373  0.4955911254572333  0.2464079801585727
  0.2495747579792970  0.4956001279201393  0.2542069184276653
  0.4945826058476608  0.5027950609282662  0.2397751932081741
  0.7463307642733323  0.5022013377826485  0.2517481602001155
  0.0034660995335193  0.7379961749187331  0.2495465067988131
  0.2482390170788975  0.7493948420047505  0.2483385187351357
  0.5053688518743725  0.7565210639257390  0.2433545574342903
  0.7520563030795788  0.7429210073492218  0.2572555636806275
  0.0153646537942938  0.9904001578220852  0.4940824140405019
  0.2647474682654118  0.9994805031064820  0.4931071639440668
  0.4985845806222422  0.0003508470389296  0.4844593748926485
  0.7427770871757673  0.9991979512164813  0.5037778178597457
  0.9925539564581429  0.2549520037752707  0.4988953454335555
  0.2437040124018779  0.2484571898655664  0.5048171003123867
  0.5158540294123997  0.2499169414492027  0.4899702807635489
  0.7494610883704935  0.2598143617347673  0.4935484581588935
  0.9959344699202684  0.5036235905310714  0.4975065911928149
  0.2510023418374026  0.5037531652759815  0.4908794197057515
  0.4998059097559219  0.4889832009337252  0.5015123158446101
  0.7523421053943428  0.5007963933238962  0.4945742883533902
  0.9913849372527624  0.7581597298410495  0.4975637649864623
  0.2524909165529626  0.7444956700261447  0.5097179370338865
  0.5111748100770973  0.7594851746990695  0.4893962758072175
  0.7618319091959842  0.7531676739725711  0.4886795207106586
  0.0116370966312557  0.9913120035076209  0.7409122180336543
  0.2572368740434545  0.9999082595078251  0.7541747032251359
  0.4944301574197292  0.0003772228360214  0.7400694752270927
  0.7531386435608319  0.0021264028667899  0.7481547685462323
  0.0024712420853800  0.2476054195455690  0.7441014876354997
  0.2531429827364607  0.2522208111423289  0.7530850915282340
  0.5071675745712830  0.2508647379588897  0.7448244616220203
  0.7542076363544531  0.2562114729042103  0.7523105368275247
  0.9889242103535574  0.5042313188152007  0.7545169647420558
  0.2517851739275011  0.5023129355884659  0.7514380974957615
  0.4898918705212846  0.5082681400085646  0.7529504947238799
  0.7495421173971472  0.4930621437990062  0.7431082401430200
  0.0014229838978590  0.7422818615606226  0.7542374777729325
  0.2469347971241173  0.7571634699356754  0.7541668819995407
  0.4988570679101371  0.7513070511692173  0.7521692191405863
  0.7479692762242732  0.7504370500278300  0.7524126620248183
  0.0668084647529969  0.0606294863104861  0.0583853374890793
  0.3172345527723148  0.0472651877120667  0.0696252365741462
  0.5576357430264106  0.0814373259093091  0.0600330253477087
  0.8255581944720736  0.0521420693270146  0.0530263955822041
  0.0595672677441240  0.3173047856008749  0.0667617024257652
  0.3075906064665539  0.3170618668163048  0.0738292532895198
  0.5604028237036673  0.3288100769599215  0.0550201477674917
  0.8104973991819399  0.3138508705682595  0.0675110734677544
  0.0576297352758258  0.5625265601628823  0.0657254567229501
  0.3201173310165260  0.5613394990521198  0.0541655617131677
  0.5546159960531062  0.5637729817893363  0.0618646240715991
  0.8146966736972722  0.5691109778775146  0.0679063435968500
  0.0531919999760768  0.8223692864707109  0.0662029585327320
  0.3154910786667364  0.8168193118345876  0.0550610361944944
  0.5564602860260938  0.8156629606307713  0.0706772857640949
  0.8236036034666318  0.8144552139745719  0.0524651052126357
  0.0721256753098147  0.0586481441995666  0.3110834639244686
  0.3010521156702083  0.0676393694945148  0.3094397296445702
  0.5560122762110933  0.0655555350008756  0.3062360741142121
  0.8184958242280317  0.0564373843324655  0.3131317979254052
  0.0584591092073173  0.3129771775566631  0.3146832006261021
  0.3083142493211547  0.3140267912631742  0.3129408242345461
  0.5656017691311881  0.3263076408988719  0.3107239720314211
  0.8070898170694821  0.3193012125311167  0.3081378308944208
  0.0692361236436470  0.5529867207494348  0.3024422770048650
  0.3131294012607290  0.5645874273803142  0.3168271331351329
  0.5666130178156825  0.5529961391038511  0.3194575570692998
  0.8107437391734310  0.5739427434358098  0.3051697373014602
  0.0630595713864708  0.8046564238240975  0.3112724951953535
  0.3105965593405137  0.8119635747004383  0.3053967449440773
  0.5594834210539039  0.8219761536869135  0.3080098961699240
  0.8170119238138459  0.8081980245343423  0.3079459626818894
  0.0530379215712313  0.0782789131298460  0.5634708513764435
  0.3170443964612523  0.0674871084375092  0.5510188196419854
  0.5614622445484213  0.0633853149058737  0.5579035029721623
  0.8259972378137410  0.0573645069756274  0.5563006159669682
  0.0605689739949005  0.3095798705861755  0.5723625708772090
  0.3207687755968696  0.3153552841973976  0.5506551067065218
  0.5672953014000960  0.3129994674155844  0.5663265933328641
  0.8060797785606760  0.3170253560094365  0.5720333005989401
  0.0607650569820083  0.5657632365588038  0.5527932437321059
  0.2954480752221205  0.5731575098383572  0.5677396727259019
  0.5645588999365171  0.5505773354647566  0.5659526438113822
  0.8148628070323476  0.5687940421179025  0.5553324913525730
  0.0657521807875207  0.8090743889076238  0.5618439157819077
  0.3198200959523394  0.8040412235313324  0.5586673273309275
  0.5641880783590814  0.8109664853456029  0.5682801844225706
  0.8139789467498384  0.8074039593516188  0.5598748837232721
  0.0649497768140432  0.0553937005046721  0.8137667493173625
  0.3197763378812897  0.0589571781031878  0.8098519625569444
  0.5663060105789692  0.0511338630266833  0.8229099789836402
  0.8192800124482914  0.0642271775459357  0.8151062412345380
  0.0566756179592812  0.3116636989193775  0.8181681453752144
  0.3164503602023321  0.3098258621722954  0.8110870903065860
  0.5589803655481207  0.3224755487307115  0.8082681754275166
  0.8217000482569928  0.3050839151196582  0.8110612425489896
  0.0651272946634324  0.5613822748217131  0.8208655062978688
  0.3040166915821438  0.5694710119139913  0.8172715069106873
  0.5569171281241475  0.5618599347709137  0.8191097032472414
  0.8093879176165458  0.5600340685414175  0.8187013308274365
  0.0541759889733921  0.8092943235504553  0.8220187002817410
  0.3093241232190387  0.8117352379179258  0.8111669504264520
  0.5582234289903099  0.8109048709285810  0.8107679964029330
  0.8122197004723877  0.8067778777547014  0.8064125904909876
