kk                                      
   1.00000000000000     
     0.0000000000000000   10.9373336906932952   10.9373336906932952
    10.9373336906932952    0.0000000000000000   10.9373336906932952
    10.9373336906932952   10.9373336906932952    0.0000000000000000
   Si
   128
Direct
  0.0022455519887643  0.0031106585891223  0.9985741862158548
  0.2393821671295555  0.9938484454907837  0.0096093593504065
  0.4962942442413620  0.0202081717768223  0.9936822304722739
  0.7434620602557658  0.0120151063222593  0.9909106873526028
  0.9880398161807307  0.2530124582670865  0.0062815478577321
  0.2518522794425664  0.2501564556234186  0.9914942259460773
  0.4992232557039031  0.2467263324287927  0.9962635927711645
  0.7476631404441889  0.2442239440280076  0.0063705822012921
  0.9961290205988789  0.5056537823928977  0.9966356931942215
  0.2500781517931543  0.5090742897680229  0.9937017851507477
  0.4838089873486027  0.5086126656913379  0.0136794538861338
  0.7525337539661194  0.5113186435075434  0.9918814080612464
  0.9942337801876775  0.7438110046434332  0.0156164119640110
  0.2459193673462465  0.7494697775774171  0.0016812881873491
  0.4958895666558973  0.7549649897936632  0.9932469892817579
  0.7508227280902702  0.7555275542290900  0.9980119712946447
  0.9983639173581906  0.9977055197646578  0.2427935704122319
  0.2516396135193446  0.0158929309263911  0.2438311196942138
  0.5066322007361350  0.9930696893894648  0.2480619452306172
  0.7602894755617200  0.9925486560214907  0.2437427002151651
  0.0053874685895821  0.2536838734484306  0.2329843651880452
  0.2484857305640560  0.2572863820727775  0.2390514563737582
  0.5054326448570947  0.2511184638635058  0.2516343107271126
  0.7525691954591309  0.2445350901524321  0.2531278809422446
  0.0031541804539259  0.5014417475275366  0.2326996054079444
  0.2440508845750529  0.4943557970145349  0.2640383964392896
  0.4995669790520623  0.4929254991678960  0.2488292984545240
  0.7533756235867060  0.4950655502249148  0.2554216895365471
  0.9981058405399281  0.7453844177061058  0.2476281087367056
  0.2450615908958014  0.7498441803202098  0.2475804340640266
  0.5139777350793153  0.7504540102595882  0.2414547371830693
  0.7456038668080609  0.7461784511518772  0.2549373875411973
  0.9942263650118974  0.9995010959593884  0.4932101167690064
  0.2575475676117165  0.9916259573245227  0.5005897254731764
  0.4957460967983636  0.9955494977197077  0.5004766511570224
  0.7607243690337668  0.9926239919861999  0.4971282769878229
  0.9906049462757593  0.2582447820803537  0.5001142544993868
  0.2429795417815939  0.2479271439921078  0.4867894854626158
  0.5080051031394888  0.2508347167137117  0.4884213666010950
  0.7424943886239959  0.2510773082866820  0.5093704947219990
  0.9820044124682994  0.5105229838552319  0.5108424869092687
  0.2446616484363346  0.5047804248803089  0.4991217253090312
  0.4975273945698291  0.4995445073826090  0.5043555162299995
  0.7567586523494398  0.4908633427543734  0.5072911521443046
  0.0008558851984617  0.7579788406199839  0.4849588877908175
  0.2411399850079903  0.7529899041829609  0.5028238062637200
  0.5027185220162664  0.7371088349990913  0.5006308806963133
  0.7412381333948304  0.7482063003667605  0.4976898641042311
  0.9982759836813599  0.9930050074821750  0.7630257851696243
  0.2373906285321539  0.9925749888252255  0.7577543367989250
  0.4982609671629561  0.0041438681741184  0.7600642826978685
  0.7502251000656912  0.9959615856452189  0.7480177716408534
  0.9979672572829941  0.2462829670450546  0.7528838531866811
  0.2421490070562768  0.2494975292008377  0.7507400416244678
  0.5037604248434349  0.2531148284634597  0.7576923419807287
  0.7370596858630236  0.2708571211832691  0.7604118301143359
  0.0003989811269065  0.5027569417799356  0.7526462326142394
  0.2535913221937633  0.4941109020762298  0.7447026080526271
  0.4949756597798043  0.5129882055138850  0.7417580065758642
  0.7427534740345791  0.5021345428198387  0.7554723767132288
  0.0077555705378458  0.7473611070435737  0.7433730446278020
  0.2381224701751776  0.7499539527806434  0.7618521706050601
  0.4985501581235070  0.7511138225226688  0.7461754132090448
  0.7452238039882744  0.7652910712183143  0.7464650675333928
  0.0649979991038592  0.0617698830212419  0.0567518921211487
  0.3127613255493742  0.0742276075485648  0.0522088416080209
  0.5613303827175358  0.0651103327937861  0.0596107196560922
  0.8130570976099492  0.0630983056622583  0.0625240740733304
  0.0625376205740196  0.3046933431271270  0.0551427114845353
  0.3059572288137247  0.3174286436796621  0.0526505453165100
  0.5613910739899737  0.3167416586598364  0.0581257514342397
  0.8131121241501376  0.2959424600572262  0.0686144332264291
  0.0699449087715749  0.5597841120536984  0.0511418892676758
  0.3051664675702384  0.5762989615611005  0.0660859826223188
  0.5694132293345717  0.5676414397301102  0.0512711376315593
  0.8159642945371743  0.5619749246928549  0.0546788790268096
  0.0620658325560299  0.8081940266492609  0.0533914296985714
  0.3096579364222123  0.8115721743417339  0.0542427279065976
  0.5733225203696648  0.7996841213999346  0.0577831039631249
  0.8126113674344992  0.8064455586832153  0.0620940615669028
  0.0753526457784446  0.0707260149299387  0.3071300544160778
  0.3148924247472280  0.0650470651441353  0.3116957732560266
  0.5721633146790950  0.0545202149528521  0.3139668575488344
  0.8063604124646773  0.0567852328198271  0.3119758655520855
  0.0655378588151621  0.3086182009471372  0.3164886046016875
  0.3078178752679861  0.3114649078907306  0.3124769024917100
  0.5607101220776016  0.3093266592199271  0.3134932255941862
  0.8173668797678388  0.3085391516515514  0.3041063474213246
  0.0626954281575038  0.5621080368736457  0.3059600259067281
  0.3145069433573795  0.5597385538951727  0.3207157776926977
  0.5529094627259923  0.5650166909409222  0.3230519302041515
  0.8148576937250027  0.5635200721350913  0.3099004301364729
  0.0589162889494688  0.8166815076239402  0.3109995027268937
  0.3067538358357922  0.8157569721486126  0.3179768602593285
  0.5641008396789715  0.8094079904437805  0.3193722283458413
  0.8096542640168920  0.8126790839053939  0.3042534253043243
  0.0589083727725779  0.0663797538778113  0.5692727275791114
  0.3118537579470981  0.0666476294930973  0.5701680590575933
  0.5652531090802952  0.0661476016394928  0.5663593235605902
  0.8045418161630593  0.0557783074559381  0.5676755917196346
  0.0627232404691327  0.3115982110193158  0.5718613635861445
  0.3208906070652233  0.3015666447889842  0.5708566381561795
  0.5478166366961901  0.3190504561209337  0.5703374999609565
  0.8109816209029290  0.3115560710566925  0.5649558357009994
  0.0639044110028095  0.5663152968713447  0.5700148250272719
  0.3058912192462770  0.5804468005972296  0.5644329432744755
  0.5750108402375034  0.5534471392475737  0.5544226323808488
  0.8010315517119793  0.5768603865438848  0.5586842369933365
  0.0635421746847342  0.8112769868613654  0.5609165449911231
  0.3118472267022341  0.8060716454160612  0.5594655739552010
  0.5644919384480005  0.8187202932362609  0.5625407296427340
  0.8134361619792756  0.8115841604416687  0.5527810792356149
  0.0613550924283714  0.0757784779365807  0.8082797142369458
  0.3017405067205701  0.0590845638239017  0.8142971080373513
  0.5466911703666852  0.0722394797564192  0.8195337103249329
  0.8132832165935113  0.0665308321444442  0.8122077189217762
  0.0569243489811484  0.3053913567066147  0.8199984245978271
  0.3105868878508176  0.3149044873299829  0.8096314875694475
  0.5610230145120454  0.3191300017892544  0.8074228078367156
  0.8085329857529544  0.3180152525621551  0.8144998187202006
  0.0587241283418791  0.5678580324700491  0.8135428246666052
  0.2958149980376490  0.5736742507821333  0.7999173027179225
  0.5650856420832824  0.5536656305639269  0.8111864348385893
  0.8105458288522343  0.5602661788650423  0.8145066016191933
  0.0550533162952007  0.8137457796571184  0.8080553169473461
  0.3192165905972999  0.8026084173029631  0.8099566848522670
  0.5587736004423718  0.8206918208420646  0.8149466235030403
  0.8198338487556711  0.8038159371757558  0.8238165746528665
 
  0.00000000E+00  0.00000000E+00  0.00000000E+00
  0.00000000E+00  0.00000000E+00  0.00000000E+00
  0.00000000E+00  0.00000000E+00  0.00000000E+00
  0.00000000E+00  0.00000000E+00  0.00000000E+00
  0.00000000E+00  0.00000000E+00  0.00000000E+00
  0.00000000E+00  0.00000000E+00  0.00000000E+00
  0.00000000E+00  0.00000000E+00  0.00000000E+00
  0.00000000E+00  0.00000000E+00  0.00000000E+00
  0.00000000E+00  0.00000000E+00  0.00000000E+00
  0.00000000E+00  0.00000000E+00  0.00000000E+00
  0.00000000E+00  0.00000000E+00  0.00000000E+00
  0.00000000E+00  0.00000000E+00  0.00000000E+00
  0.00000000E+00  0.00000000E+00  0.00000000E+00
  0.00000000E+00  0.00000000E+00  0.00000000E+00
  0.00000000E+00  0.00000000E+00  0.00000000E+00
  0.00000000E+00  0.00000000E+00  0.00000000E+00
  0.00000000E+00  0.00000000E+00  0.00000000E+00
  0.00000000E+00  0.00000000E+00  0.00000000E+00
  0.00000000E+00  0.00000000E+00  0.00000000E+00
  0.00000000E+00  0.00000000E+00  0.00000000E+00
  0.00000000E+00  0.00000000E+00  0.00000000E+00
  0.00000000E+00  0.00000000E+00  0.00000000E+00
  0.00000000E+00  0.00000000E+00  0.00000000E+00
  0.00000000E+00  0.00000000E+00  0.00000000E+00
  0.00000000E+00  0.00000000E+00  0.00000000E+00
  0.00000000E+00  0.00000000E+00  0.00000000E+00
  0.00000000E+00  0.00000000E+00  0.00000000E+00
  0.00000000E+00  0.00000000E+00  0.00000000E+00
  0.00000000E+00  0.00000000E+00  0.00000000E+00
  0.00000000E+00  0.00000000E+00  0.00000000E+00
  0.00000000E+00  0.00000000E+00  0.00000000E+00
  0.00000000E+00  0.00000000E+00  0.00000000E+00
  0.00000000E+00  0.00000000E+00  0.00000000E+00
  0.00000000E+00  0.00000000E+00  0.00000000E+00
  0.00000000E+00  0.00000000E+00  0.00000000E+00
  0.00000000E+00  0.00000000E+00  0.00000000E+00
  0.00000000E+00  0.00000000E+00  0.00000000E+00
  0.00000000E+00  0.00000000E+00  0.00000000E+00
  0.00000000E+00  0.00000000E+00  0.00000000E+00
  0.00000000E+00  0.00000000E+00  0.00000000E+00
  0.00000000E+00  0.00000000E+00  0.00000000E+00
  0.00000000E+00  0.00000000E+00  0.00000000E+00
  0.00000000E+00  0.00000000E+00  0.00000000E+00
  0.00000000E+00  0.00000000E+00  0.00000000E+00
  0.00000000E+00  0.00000000E+00  0.00000000E+00
  0.00000000E+00  0.00000000E+00  0.00000000E+00
  0.00000000E+00  0.00000000E+00  0.00000000E+00
  0.00000000E+00  0.00000000E+00  0.00000000E+00
  0.00000000E+00  0.00000000E+00  0.00000000E+00
  0.00000000E+00  0.00000000E+00  0.00000000E+00
  0.00000000E+00  0.00000000E+00  0.00000000E+00
  0.00000000E+00  0.00000000E+00  0.00000000E+00
  0.00000000E+00  0.00000000E+00  0.00000000E+00
  0.00000000E+00  0.00000000E+00  0.00000000E+00
  0.00000000E+00  0.00000000E+00  0.00000000E+00
  0.00000000E+00  0.00000000E+00  0.00000000E+00
  0.00000000E+00  0.00000000E+00  0.00000000E+00
  0.00000000E+00  0.00000000E+00  0.00000000E+00
  0.00000000E+00  0.00000000E+00  0.00000000E+00
  0.00000000E+00  0.00000000E+00  0.00000000E+00
  0.00000000E+00  0.00000000E+00  0.00000000E+00
  0.00000000E+00  0.00000000E+00  0.00000000E+00
  0.00000000E+00  0.00000000E+00  0.00000000E+00
  0.00000000E+00  0.00000000E+00  0.00000000E+00
  0.00000000E+00  0.00000000E+00  0.00000000E+00
  0.00000000E+00  0.00000000E+00  0.00000000E+00
  0.00000000E+00  0.00000000E+00  0.00000000E+00
  0.00000000E+00  0.00000000E+00  0.00000000E+00
  0.00000000E+00  0.00000000E+00  0.00000000E+00
  0.00000000E+00  0.00000000E+00  0.00000000E+00
  0.00000000E+00  0.00000000E+00  0.00000000E+00
  0.00000000E+00  0.00000000E+00  0.00000000E+00
  0.00000000E+00  0.00000000E+00  0.00000000E+00
  0.00000000E+00  0.00000000E+00  0.00000000E+00
  0.00000000E+00  0.00000000E+00  0.00000000E+00
  0.00000000E+00  0.00000000E+00  0.00000000E+00
  0.00000000E+00  0.00000000E+00  0.00000000E+00
  0.00000000E+00  0.00000000E+00  0.00000000E+00
  0.00000000E+00  0.00000000E+00  0.00000000E+00
  0.00000000E+00  0.00000000E+00  0.00000000E+00
  0.00000000E+00  0.00000000E+00  0.00000000E+00
  0.00000000E+00  0.00000000E+00  0.00000000E+00
  0.00000000E+00  0.00000000E+00  0.00000000E+00
  0.00000000E+00  0.00000000E+00  0.00000000E+00
  0.00000000E+00  0.00000000E+00  0.00000000E+00
  0.00000000E+00  0.00000000E+00  0.00000000E+00
  0.00000000E+00  0.00000000E+00  0.00000000E+00
  0.00000000E+00  0.00000000E+00  0.00000000E+00
  0.00000000E+00  0.00000000E+00  0.00000000E+00
  0.00000000E+00  0.00000000E+00  0.00000000E+00
  0.00000000E+00  0.00000000E+00  0.00000000E+00
  0.00000000E+00  0.00000000E+00  0.00000000E+00
  0.00000000E+00  0.00000000E+00  0.00000000E+00
  0.00000000E+00  0.00000000E+00  0.00000000E+00
  0.00000000E+00  0.00000000E+00  0.00000000E+00
  0.00000000E+00  0.00000000E+00  0.00000000E+00
  0.00000000E+00  0.00000000E+00  0.00000000E+00
  0.00000000E+00  0.00000000E+00  0.00000000E+00
  0.00000000E+00  0.00000000E+00  0.00000000E+00
  0.00000000E+00  0.00000000E+00  0.00000000E+00
  0.00000000E+00  0.00000000E+00  0.00000000E+00
  0.00000000E+00  0.00000000E+00  0.00000000E+00
  0.00000000E+00  0.00000000E+00  0.00000000E+00
  0.00000000E+00  0.00000000E+00  0.00000000E+00
  0.00000000E+00  0.00000000E+00  0.00000000E+00
  0.00000000E+00  0.00000000E+00  0.00000000E+00
  0.00000000E+00  0.00000000E+00  0.00000000E+00
  0.00000000E+00  0.00000000E+00  0.00000000E+00
  0.00000000E+00  0.00000000E+00  0.00000000E+00
  0.00000000E+00  0.00000000E+00  0.00000000E+00
  0.00000000E+00  0.00000000E+00  0.00000000E+00
  0.00000000E+00  0.00000000E+00  0.00000000E+00
  0.00000000E+00  0.00000000E+00  0.00000000E+00
  0.00000000E+00  0.00000000E+00  0.00000000E+00
  0.00000000E+00  0.00000000E+00  0.00000000E+00
  0.00000000E+00  0.00000000E+00  0.00000000E+00
  0.00000000E+00  0.00000000E+00  0.00000000E+00
  0.00000000E+00  0.00000000E+00  0.00000000E+00
  0.00000000E+00  0.00000000E+00  0.00000000E+00
  0.00000000E+00  0.00000000E+00  0.00000000E+00
  0.00000000E+00  0.00000000E+00  0.00000000E+00
  0.00000000E+00  0.00000000E+00  0.00000000E+00
  0.00000000E+00  0.00000000E+00  0.00000000E+00
  0.00000000E+00  0.00000000E+00  0.00000000E+00
  0.00000000E+00  0.00000000E+00  0.00000000E+00
  0.00000000E+00  0.00000000E+00  0.00000000E+00
  0.00000000E+00  0.00000000E+00  0.00000000E+00
  0.00000000E+00  0.00000000E+00  0.00000000E+00
