kk
 1.0000000000000000
     0.0000000000000000   10.9373336906932952   10.9373336906932952
    10.9373336906932952    0.0000000000000000   10.9373336906932952
    10.9373336906932952   10.9373336906932952    0.0000000000000000
 128
Direct
  0.0022455519887655  0.0031106585891190  0.9985741862158551
  0.2393821671295564  0.9938484454907807  0.0096093593504051
  0.4962942442413606  0.0202081717768211  0.9936822304722723
  0.7434620602557634  0.0120151063222571  0.9909106873526021
  0.9880398161807304  0.2530124582670845  0.0062815478577351
  0.2518522794425643  0.2501564556234220  0.9914942259460758
  0.4992232557039042  0.2467263324287913  0.9962635927711666
  0.7476631404441857  0.2442239440280079  0.0063705822012887
  0.9961290205988775  0.5056537823928969  0.9966356931942214
  0.2500781517931528  0.5090742897680262  0.9937017851507499
  0.4838089873486028  0.5086126656913361  0.0136794538861327
  0.7525337539661172  0.5113186435075411  0.9918814080612496
  0.9942337801876785  0.7438110046434354  0.0156164119640129
  0.2459193673462437  0.7494697775774146  0.0016812881873521
  0.4958895666558952  0.7549649897936657  0.9932469892817570
  0.7508227280902707  0.7555275542290876  0.9980119712946455
  0.9983639173581919  0.9977055197646606  0.2427935704122300
  0.2516396135193454  0.0158929309263939  0.2438311196942157
  0.5066322007361383  0.9930696893894683  0.2480619452306160
  0.7602894755617223  0.9925486560214939  0.2437427002151650
  0.0053874685895799  0.2536838734484338  0.2329843651880452
  0.2484857305640585  0.2572863820727744  0.2390514563737577
  0.5054326448570944  0.2511184638635086  0.2516343107271097
  0.7525691954591331  0.2445350901524343  0.2531278809422411
  0.0031541804539259  0.5014417475275336  0.2326996054079466
  0.2440508845750530  0.4943557970145334  0.2640383964392911
  0.4995669790520600  0.4929254991678987  0.2488292984545207
  0.7533756235867042  0.4950655502249126  0.2554216895365470
  0.9981058405399272  0.7453844177061040  0.2476281087367025
  0.2450615908958017  0.7498441803202085  0.2475804340640231
  0.5139777350793125  0.7504540102595882  0.2414547371830688
  0.7456038668080605  0.7461784511518755  0.2549373875411985
  0.9942263650118952  0.9995010959593870  0.4932101167690084
  0.2575475676117181  0.9916259573245219  0.5005897254731765
  0.4957460967983605  0.9955494977197055  0.5004766511570217
  0.7607243690337634  0.9926239919861995  0.4971282769878224
  0.9906049462757610  0.2582447820803557  0.5001142544993895
  0.2429795417815954  0.2479271439921053  0.4867894854626191
  0.5080051031394917  0.2508347167137145  0.4884213666010959
  0.7424943886239969  0.2510773082866796  0.5093704947220019
  0.9820044124682976  0.5105229838552351  0.5108424869092705
  0.2446616484363337  0.5047804248803105  0.4991217253090343
  0.4975273945698287  0.4995445073826094  0.5043555162299964
  0.7567586523494384  0.4908633427543748  0.5072911521443021
  0.0008558851984613  0.7579788406199872  0.4849588877908184
  0.2411399850079906  0.7529899041829603  0.5028238062637206
  0.5027185220162682  0.7371088349990910  0.5006308806963135
  0.7412381333948301  0.7482063003667623  0.4976898641042276
  0.9982759836813569  0.9930050074821745  0.7630257851696253
  0.2373906285321543  0.9925749888252221  0.7577543367989232
  0.4982609671629549  0.0041438681741211  0.7600642826978715
  0.7502251000656904  0.9959615856452223  0.7480177716408560
  0.9979672572829913  0.2462829670450551  0.7528838531866822
  0.2421490070562763  0.2494975292008381  0.7507400416244649
  0.5037604248434314  0.2531148284634597  0.7576923419807315
  0.7370596858630251  0.2708571211832721  0.7604118301143359
  0.0003989811269054  0.5027569417799344  0.7526462326142414
  0.2535913221937611  0.4941109020762275  0.7447026080526251
  0.4949756597798041  0.5129882055138826  0.7417580065758627
  0.7427534740345760  0.5021345428198356  0.7554723767132320
  0.0077555705378438  0.7473611070435757  0.7433730446278016
  0.2381224701751810  0.7499539527806435  0.7618521706050612
  0.4985501581235069  0.7511138225226683  0.7461754132090456
  0.7452238039882729  0.7652910712183125  0.7464650675333910
  0.0649979991038577  0.0617698830212433  0.0567518921211482
  0.3127613255493760  0.0742276075485637  0.0522088416080176
  0.5613303827175380  0.0651103327937896  0.0596107196560901
  0.8130570976099497  0.0630983056622570  0.0625240740733297
  0.0625376205740211  0.3046933431271237  0.0551427114845368
  0.3059572288137213  0.3174286436796647  0.0526505453165076
  0.5613910739899707  0.3167416586598377  0.0581257514342380
  0.8131121241501383  0.2959424600572246  0.0686144332264278
  0.0699449087715771  0.5597841120536982  0.0511418892676779
  0.3051664675702382  0.5762989615610994  0.0660859826223185
  0.5694132293345713  0.5676414397301136  0.0512711376315588
  0.8159642945371752  0.5619749246928580  0.0546788790268096
  0.0620658325560307  0.8081940266492643  0.0533914296985741
  0.3096579364222151  0.8115721743417349  0.0542427279065956
  0.5733225203696645  0.7996841213999318  0.0577831039631263
  0.8126113674345024  0.8064455586832187  0.0620940615669007
  0.0753526457784472  0.0707260149299375  0.3071300544160789
  0.3148924247472310  0.0650470651441327  0.3116957732560246
  0.5721633146790941  0.0545202149528512  0.3139668575488349
  0.8063604124646743  0.0567852328198272  0.3119758655520850
  0.0655378588151610  0.3086182009471355  0.3164886046016905
  0.3078178752679865  0.3114649078907331  0.3124769024917131
  0.5607101220776045  0.3093266592199259  0.3134932255941843
  0.8173668797678385  0.3085391516515532  0.3041063474213264
  0.0626954281575042  0.5621080368736463  0.3059600259067304
  0.3145069433573773  0.5597385538951695  0.3207157776926975
  0.5529094627259952  0.5650166909409202  0.3230519302041545
  0.8148576937249994  0.5635200721350899  0.3099004301364732
  0.0589162889494680  0.8166815076239433  0.3109995027268910
  0.3067538358357925  0.8157569721486161  0.3179768602593309
  0.5641008396789718  0.8094079904437811  0.3193722283458439
  0.8096542640168916  0.8126790839053945  0.3042534253043269
  0.0589083727725758  0.0663797538778118  0.5692727275791083
  0.3118537579470965  0.0666476294930973  0.5701680590575968
  0.5652531090802979  0.0661476016394911  0.5663593235605873
  0.8045418161630595  0.0557783074559376  0.5676755917196326
  0.0627232404691326  0.3115982110193181  0.5718613635861447
  0.3208906070652230  0.3015666447889807  0.5708566381561810
  0.5478166366961903  0.3190504561209351  0.5703374999609556
  0.8109816209029306  0.3115560710566950  0.5649558357009966
  0.0639044110028116  0.5663152968713452  0.5700148250272684
  0.3058912192462767  0.5804468005972326  0.5644329432744755
  0.5750108402375040  0.5534471392475743  0.5544226323808454
  0.8010315517119779  0.5768603865438866  0.5586842369933377
  0.0635421746847328  0.8112769868613652  0.5609165449911238
  0.3118472267022376  0.8060716454160642  0.5594655739552022
  0.5644919384480019  0.8187202932362621  0.5625407296427357
  0.8134361619792783  0.8115841604416651  0.5527810792356164
  0.0613550924283742  0.0757784779365797  0.8082797142369486
  0.3017405067205718  0.0590845638239051  0.8142971080373531
  0.5466911703666888  0.0722394797564219  0.8195337103249328
  0.8132832165935133  0.0665308321444412  0.8122077189217773
  0.0569243489811495  0.3053913567066170  0.8199984245978245
  0.3105868878508206  0.3149044873299823  0.8096314875694475
  0.5610230145120435  0.3191300017892577  0.8074228078367126
  0.8085329857529551  0.3180152525621561  0.8144998187202005
  0.0587241283418797  0.5678580324700513  0.8135428246666053
  0.2958149980376507  0.5736742507821300  0.7999173027179244
  0.5650856420832812  0.5536656305639235  0.8111864348385885
  0.8105458288522368  0.5602661788650406  0.8145066016191936
  0.0550533162952030  0.8137457796571163  0.8080553169473459
  0.3192165905972978  0.8026084173029656  0.8099566848522635
  0.5587736004423713  0.8206918208420677  0.8149466235030378
  0.8198338487556703  0.8038159371757535  0.8238165746528675
