kk                                      
   1.00000000000000     
     0.0000000000000000   10.9373336906932952   10.9373336906932952
    10.9373336906932952    0.0000000000000000   10.9373336906932952
    10.9373336906932952   10.9373336906932952    0.0000000000000000
   Si
   128
Direct
  0.0098537546380442  0.9960460644927167  0.9973485452730628
  0.2461924093427186  0.9931411313998026  0.0033962680689186
  0.4994380672910310  0.9948980185079890  0.9990096968555164
  0.7481110184259023  0.9977921289459886  0.0033489954326669
  0.0026013219564973  0.2451261962372939  0.9976477519631715
  0.2502010297570081  0.2474837784749226  0.0056358865100279
  0.4993308470816658  0.2461178839097613  0.0002080199734991
  0.7419863756039575  0.2514406858952540  0.9951488105140811
  0.0021747384083071  0.4901381886640621  0.0083716372257427
  0.2527587674494995  0.5046020692826900  0.0024372396603312
  0.5022416379463976  0.5028265456833694  0.9876664115573774
  0.7626608422746983  0.4865748442519191  0.9989136160665879
  0.9962535675865851  0.7472910011697209  0.0025374232772464
  0.2595677450772484  0.7529776648568571  0.9955321713526502
  0.4941686433737047  0.7516555818068724  0.0063827107499037
  0.7529109862766035  0.7491954806100196  0.9995106992316636
  0.0058401575011899  0.9984224912205732  0.2430674856476003
  0.2586829594706899  0.9945675795011653  0.2495448103052453
  0.4924666419603270  0.9995588780562770  0.2390083808999321
  0.7404342386372633  0.0058017411063176  0.2467262541934616
  0.9938864798613025  0.2459834352778856  0.2625318830601771
  0.2446371167009076  0.2418604918488541  0.2562221780014440
  0.5113372891795720  0.2492732431325209  0.2486735708875543
  0.7496992933193241  0.2442928428552875  0.2513002780230806
  0.0102167060873981  0.4941612022996082  0.2429792112039522
  0.2410881728641385  0.4944050651427503  0.2605339630480330
  0.4989243735971272  0.5028059304021042  0.2427427627773184
  0.7574778030347389  0.4928294411622431  0.2539175837618188
  0.9934557182881250  0.7555059291061639  0.2489491148170373
  0.2611502549707794  0.7539134429027570  0.2483249498561264
  0.5015308304470452  0.7511040163362992  0.2476503203348273
  0.7416677693128051  0.7492918125984360  0.2493495109791084
  0.9930443531385720  0.0098358548849475  0.4927178317460346
  0.2564507505920872  0.9954882861491683  0.4961218200291668
  0.5026820703804162  0.0060251139883221  0.4961150663599554
  0.7574095818358160  0.9948123599815091  0.5067721850408233
  0.0122669514870068  0.2427831379198864  0.5026559069089984
  0.2417539906999764  0.2536150441884999  0.4985940873040349
  0.5081796191359373  0.2465839983995934  0.4987099362769598
  0.7479591524373177  0.2379639539925833  0.5058324480939334
  0.9937120564590245  0.5004620791398722  0.5109925367897574
  0.2455473322926807  0.4887800117158179  0.5164933747705973
  0.5036261468774228  0.4914403403689462  0.5042071572873894
  0.7483454857293026  0.5134084552020965  0.4882581553293193
  0.0056231018253285  0.7506383186540191  0.5017772416335333
  0.2665480029449441  0.7533936815809312  0.4938369963159204
  0.4940821064951422  0.7495537454086971  0.5064059260044971
  0.7410535031617798  0.7465074943064778  0.5000317689633391
  0.9890659413234388  0.0078066911677652  0.7547715171059224
  0.2531431483237654  0.9997966325934584  0.7413866104448843
  0.5012491842445286  0.9917026765038202  0.7490070541781506
  0.7494276848925381  0.0035493434674336  0.7494643464543529
  0.0003227538912185  0.2427673163930422  0.7513920563975347
  0.2552436976933734  0.2488686903123281  0.7604923510736938
  0.5037431154708187  0.2484535637809273  0.7556479871962694
  0.7537671576265907  0.2630046609977228  0.7413571830933776
  0.9950325023797859  0.4979638640935562  0.7391508007262146
  0.2467898537549402  0.4987638028752883  0.7511061714416485
  0.4920528360667618  0.5053942082531648  0.7540305470874031
  0.7508409440748238  0.5056701953651199  0.7535965551353314
  0.9935187088387494  0.7593337553724453  0.7576656504659738
  0.2434020489583304  0.7493422009893607  0.7588703730756450
  0.4930354345294319  0.7462098012902629  0.7546446975297130
  0.7626334714538032  0.7486912743974727  0.7427260259809501
  0.0646496170905237  0.0633254901226437  0.0580868855494430
  0.3148310532296890  0.0691164463917247  0.0661472330611232
  0.5713772921688758  0.0600063912754720  0.0594853195306086
  0.8056066461186404  0.0715778749973524  0.0569215177428504
  0.0638628997649633  0.3116453040455198  0.0666434323503111
  0.3232723343293813  0.3122756181867459  0.0516986426804564
  0.5514191081137270  0.3140181717032249  0.0648723015254475
  0.8159846187708766  0.3080453461831496  0.0730198522657517
  0.0685646030073315  0.5595553819486554  0.0606932365806472
  0.3079481999823059  0.5581794329825627  0.0699705806482740
  0.5629927697496058  0.5639857731443172  0.0639576205557262
  0.8150657461061215  0.5575737918888493  0.0657064389011737
  0.0696605746839580  0.8087672284242231  0.0571260520637082
  0.3171425274770314  0.8044766775409187  0.0614480400846489
  0.5696136319865985  0.8085916265305855  0.0641148691431823
  0.7936550500285264  0.8132320351525308  0.0703206016165652
  0.0597750531046373  0.0613379516839387  0.3100821984137241
  0.3116718139378705  0.0635192430779057  0.3092495281114296
  0.5641000382806141  0.0638363358470997  0.3040071280758880
  0.8069781282584714  0.0710280798746012  0.3222018975736631
  0.0709924878728998  0.3173872669544906  0.2991668545694210
  0.3179222195944647  0.3160362750912142  0.3136089697749043
  0.5591556220101381  0.3261802438241261  0.3007775468058256
  0.8163117209412292  0.3125906529815552  0.3149347800719582
  0.0621869311876253  0.5574719669894179  0.3120722775204783
  0.3209314223711672  0.5499962745988896  0.3087348215582679
  0.5595768120277427  0.5507181448917393  0.3228941963742926
  0.8185392312655537  0.5639133760183341  0.3055064461852197
  0.0599217299397949  0.8080820429407396  0.3207436303397841
  0.3086123255716160  0.8232847147429609  0.3085611552223781
  0.5570489652075210  0.8082806204862791  0.3243404761742426
  0.8159907898921617  0.8218594190127959  0.3140426702500392
  0.0686489999658946  0.0570050876158703  0.5522756203282313
  0.3232674536963387  0.0589253196306174  0.5536114670134893
  0.5673928447952790  0.0701388858647434  0.5493169102123119
  0.8137872542647457  0.0550543323286519  0.5692541955497106
  0.0645236754199061  0.2981315132181450  0.5682675255087588
  0.3119513708861632  0.2991504790264443  0.5681860634300264
  0.5612476297704632  0.3082848772304487  0.5643046722593610
  0.8160432121996450  0.3183326924173997  0.5681025224159910
  0.0664725292005031  0.5668668522142397  0.5492564653236300
  0.3138958772574867  0.5601629992592621  0.5552169385632766
  0.5582277354072431  0.5619041400615714  0.5631294194425180
  0.8197582066383760  0.5463464615907156  0.5606161074328213
  0.0672258613889127  0.8095997135850155  0.5553102164182988
  0.3141243256079136  0.8209628711758441  0.5602811855777432
  0.5638332776649690  0.8067982710794723  0.5696044823458237
  0.8116014211860261  0.8136599564041234  0.5615788398542279
  0.0670105730563435  0.0639215640634134  0.8118076880151435
  0.3061854722497728  0.0585474804475012  0.8102688158583433
  0.5534664805129808  0.0646791113716887  0.8239352052334610
  0.8104114676133349  0.0704305872397342  0.8260665704293828
  0.0514909771307615  0.3102022098455421  0.8185119894488793
  0.3228661050900712  0.3059855217624090  0.8117618929830144
  0.5576176801776356  0.3182914946241908  0.8190015768538288
  0.8124158257889107  0.3131524414654621  0.8100812418181107
  0.0636418766525750  0.5558867572166832  0.8226253214278572
  0.3090566739181142  0.5600166539646025  0.8126201717415142
  0.5603127503994898  0.5663585525912467  0.8105654717571724
  0.8171796339904844  0.5609606948628070  0.8102419881780065
  0.0666151420611527  0.8053933117193779  0.8173991783304970
  0.3087330410522640  0.8145143365730760  0.8055567321265684
  0.5592109106989511  0.8174774930091289  0.8123581353937865
  0.8102712209234042  0.8118456523307387  0.8124752865479863
 
  0.00000000E+00  0.00000000E+00  0.00000000E+00
  0.00000000E+00  0.00000000E+00  0.00000000E+00
  0.00000000E+00  0.00000000E+00  0.00000000E+00
  0.00000000E+00  0.00000000E+00  0.00000000E+00
  0.00000000E+00  0.00000000E+00  0.00000000E+00
  0.00000000E+00  0.00000000E+00  0.00000000E+00
  0.00000000E+00  0.00000000E+00  0.00000000E+00
  0.00000000E+00  0.00000000E+00  0.00000000E+00
  0.00000000E+00  0.00000000E+00  0.00000000E+00
  0.00000000E+00  0.00000000E+00  0.00000000E+00
  0.00000000E+00  0.00000000E+00  0.00000000E+00
  0.00000000E+00  0.00000000E+00  0.00000000E+00
  0.00000000E+00  0.00000000E+00  0.00000000E+00
  0.00000000E+00  0.00000000E+00  0.00000000E+00
  0.00000000E+00  0.00000000E+00  0.00000000E+00
  0.00000000E+00  0.00000000E+00  0.00000000E+00
  0.00000000E+00  0.00000000E+00  0.00000000E+00
  0.00000000E+00  0.00000000E+00  0.00000000E+00
  0.00000000E+00  0.00000000E+00  0.00000000E+00
  0.00000000E+00  0.00000000E+00  0.00000000E+00
  0.00000000E+00  0.00000000E+00  0.00000000E+00
  0.00000000E+00  0.00000000E+00  0.00000000E+00
  0.00000000E+00  0.00000000E+00  0.00000000E+00
  0.00000000E+00  0.00000000E+00  0.00000000E+00
  0.00000000E+00  0.00000000E+00  0.00000000E+00
  0.00000000E+00  0.00000000E+00  0.00000000E+00
  0.00000000E+00  0.00000000E+00  0.00000000E+00
  0.00000000E+00  0.00000000E+00  0.00000000E+00
  0.00000000E+00  0.00000000E+00  0.00000000E+00
  0.00000000E+00  0.00000000E+00  0.00000000E+00
  0.00000000E+00  0.00000000E+00  0.00000000E+00
  0.00000000E+00  0.00000000E+00  0.00000000E+00
  0.00000000E+00  0.00000000E+00  0.00000000E+00
  0.00000000E+00  0.00000000E+00  0.00000000E+00
  0.00000000E+00  0.00000000E+00  0.00000000E+00
  0.00000000E+00  0.00000000E+00  0.00000000E+00
  0.00000000E+00  0.00000000E+00  0.00000000E+00
  0.00000000E+00  0.00000000E+00  0.00000000E+00
  0.00000000E+00  0.00000000E+00  0.00000000E+00
  0.00000000E+00  0.00000000E+00  0.00000000E+00
  0.00000000E+00  0.00000000E+00  0.00000000E+00
  0.00000000E+00  0.00000000E+00  0.00000000E+00
  0.00000000E+00  0.00000000E+00  0.00000000E+00
  0.00000000E+00  0.00000000E+00  0.00000000E+00
  0.00000000E+00  0.00000000E+00  0.00000000E+00
  0.00000000E+00  0.00000000E+00  0.00000000E+00
  0.00000000E+00  0.00000000E+00  0.00000000E+00
  0.00000000E+00  0.00000000E+00  0.00000000E+00
  0.00000000E+00  0.00000000E+00  0.00000000E+00
  0.00000000E+00  0.00000000E+00  0.00000000E+00
  0.00000000E+00  0.00000000E+00  0.00000000E+00
  0.00000000E+00  0.00000000E+00  0.00000000E+00
  0.00000000E+00  0.00000000E+00  0.00000000E+00
  0.00000000E+00  0.00000000E+00  0.00000000E+00
  0.00000000E+00  0.00000000E+00  0.00000000E+00
  0.00000000E+00  0.00000000E+00  0.00000000E+00
  0.00000000E+00  0.00000000E+00  0.00000000E+00
  0.00000000E+00  0.00000000E+00  0.00000000E+00
  0.00000000E+00  0.00000000E+00  0.00000000E+00
  0.00000000E+00  0.00000000E+00  0.00000000E+00
  0.00000000E+00  0.00000000E+00  0.00000000E+00
  0.00000000E+00  0.00000000E+00  0.00000000E+00
  0.00000000E+00  0.00000000E+00  0.00000000E+00
  0.00000000E+00  0.00000000E+00  0.00000000E+00
  0.00000000E+00  0.00000000E+00  0.00000000E+00
  0.00000000E+00  0.00000000E+00  0.00000000E+00
  0.00000000E+00  0.00000000E+00  0.00000000E+00
  0.00000000E+00  0.00000000E+00  0.00000000E+00
  0.00000000E+00  0.00000000E+00  0.00000000E+00
  0.00000000E+00  0.00000000E+00  0.00000000E+00
  0.00000000E+00  0.00000000E+00  0.00000000E+00
  0.00000000E+00  0.00000000E+00  0.00000000E+00
  0.00000000E+00  0.00000000E+00  0.00000000E+00
  0.00000000E+00  0.00000000E+00  0.00000000E+00
  0.00000000E+00  0.00000000E+00  0.00000000E+00
  0.00000000E+00  0.00000000E+00  0.00000000E+00
  0.00000000E+00  0.00000000E+00  0.00000000E+00
  0.00000000E+00  0.00000000E+00  0.00000000E+00
  0.00000000E+00  0.00000000E+00  0.00000000E+00
  0.00000000E+00  0.00000000E+00  0.00000000E+00
  0.00000000E+00  0.00000000E+00  0.00000000E+00
  0.00000000E+00  0.00000000E+00  0.00000000E+00
  0.00000000E+00  0.00000000E+00  0.00000000E+00
  0.00000000E+00  0.00000000E+00  0.00000000E+00
  0.00000000E+00  0.00000000E+00  0.00000000E+00
  0.00000000E+00  0.00000000E+00  0.00000000E+00
  0.00000000E+00  0.00000000E+00  0.00000000E+00
  0.00000000E+00  0.00000000E+00  0.00000000E+00
  0.00000000E+00  0.00000000E+00  0.00000000E+00
  0.00000000E+00  0.00000000E+00  0.00000000E+00
  0.00000000E+00  0.00000000E+00  0.00000000E+00
  0.00000000E+00  0.00000000E+00  0.00000000E+00
  0.00000000E+00  0.00000000E+00  0.00000000E+00
  0.00000000E+00  0.00000000E+00  0.00000000E+00
  0.00000000E+00  0.00000000E+00  0.00000000E+00
  0.00000000E+00  0.00000000E+00  0.00000000E+00
  0.00000000E+00  0.00000000E+00  0.00000000E+00
  0.00000000E+00  0.00000000E+00  0.00000000E+00
  0.00000000E+00  0.00000000E+00  0.00000000E+00
  0.00000000E+00  0.00000000E+00  0.00000000E+00
  0.00000000E+00  0.00000000E+00  0.00000000E+00
  0.00000000E+00  0.00000000E+00  0.00000000E+00
  0.00000000E+00  0.00000000E+00  0.00000000E+00
  0.00000000E+00  0.00000000E+00  0.00000000E+00
  0.00000000E+00  0.00000000E+00  0.00000000E+00
  0.00000000E+00  0.00000000E+00  0.00000000E+00
  0.00000000E+00  0.00000000E+00  0.00000000E+00
  0.00000000E+00  0.00000000E+00  0.00000000E+00
  0.00000000E+00  0.00000000E+00  0.00000000E+00
  0.00000000E+00  0.00000000E+00  0.00000000E+00
  0.00000000E+00  0.00000000E+00  0.00000000E+00
  0.00000000E+00  0.00000000E+00  0.00000000E+00
  0.00000000E+00  0.00000000E+00  0.00000000E+00
  0.00000000E+00  0.00000000E+00  0.00000000E+00
  0.00000000E+00  0.00000000E+00  0.00000000E+00
  0.00000000E+00  0.00000000E+00  0.00000000E+00
  0.00000000E+00  0.00000000E+00  0.00000000E+00
  0.00000000E+00  0.00000000E+00  0.00000000E+00
  0.00000000E+00  0.00000000E+00  0.00000000E+00
  0.00000000E+00  0.00000000E+00  0.00000000E+00
  0.00000000E+00  0.00000000E+00  0.00000000E+00
  0.00000000E+00  0.00000000E+00  0.00000000E+00
  0.00000000E+00  0.00000000E+00  0.00000000E+00
  0.00000000E+00  0.00000000E+00  0.00000000E+00
  0.00000000E+00  0.00000000E+00  0.00000000E+00
  0.00000000E+00  0.00000000E+00  0.00000000E+00
  0.00000000E+00  0.00000000E+00  0.00000000E+00
  0.00000000E+00  0.00000000E+00  0.00000000E+00
