kk
 1.0000000000000000
     0.0000000000000000   10.9373336906932952   10.9373336906932952
    10.9373336906932952    0.0000000000000000   10.9373336906932952
    10.9373336906932952   10.9373336906932952    0.0000000000000000
 128
Direct
  0.0098537546380451  0.9960460644927159  0.9973485452730602
  0.2461924093427197  0.9931411313998034  0.0033962680689219
  0.4994380672910308  0.9948980185079879  0.9990096968555152
  0.7481110184259042  0.9977921289459885  0.0033489954326661
  0.0026013219564962  0.2451261962372972  0.9976477519631680
  0.2502010297570111  0.2474837784749217  0.0056358865100306
  0.4993308470816629  0.2461178839097630  0.0002080199735005
  0.7419863756039563  0.2514406858952554  0.9951488105140776
  0.0021747384083046  0.4901381886640606  0.0083716372257403
  0.2527587674494962  0.5046020692826898  0.0024372396603345
  0.5022416379464002  0.5028265456833703  0.9876664115573771
  0.7626608422746959  0.4865748442519166  0.9989136160665905
  0.9962535675865829  0.7472910011697224  0.0025374232772453
  0.2595677450772503  0.7529776648568559  0.9955321713526472
  0.4941686433737066  0.7516555818068691  0.0063827107499045
  0.7529109862766006  0.7491954806100205  0.9995106992316660
  0.0058401575011885  0.9984224912205717  0.2430674856475999
  0.2586829594706900  0.9945675795011666  0.2495448103052475
  0.4924666419603297  0.9995588780562762  0.2390083808999334
  0.7404342386372610  0.0058017411063172  0.2467262541934620
  0.9938864798613004  0.2459834352778855  0.2625318830601760
  0.2446371167009043  0.2418604918488545  0.2562221780014439
  0.5113372891795753  0.2492732431325208  0.2486735708875545
  0.7496992933193255  0.2442928428552908  0.2513002780230793
  0.0102167060873989  0.4941612022996095  0.2429792112039533
  0.2410881728641393  0.4944050651427503  0.2605339630480339
  0.4989243735971272  0.5028059304021020  0.2427427627773158
  0.7574778030347398  0.4928294411622454  0.2539175837618218
  0.9934557182881243  0.7555059291061671  0.2489491148170401
  0.2611502549707823  0.7539134429027587  0.2483249498561241
  0.5015308304470453  0.7511040163362978  0.2476503203348303
  0.7416677693128024  0.7492918125984378  0.2493495109791103
  0.9930443531385755  0.0098358548849499  0.4927178317460352
  0.2564507505920891  0.9954882861491708  0.4961218200291664
  0.5026820703804136  0.0060251139883191  0.4961150663599558
  0.7574095818358130  0.9948123599815062  0.5067721850408240
  0.0122669514870092  0.2427831379198863  0.5026559069089978
  0.2417539906999789  0.2536150441884977  0.4985940873040341
  0.5081796191359391  0.2465839983995952  0.4987099362769629
  0.7479591524373184  0.2379639539925815  0.5058324480939307
  0.9937120564590213  0.5004620791398748  0.5109925367897555
  0.2455473322926777  0.4887800117158153  0.5164933747705968
  0.5036261468774202  0.4914403403689450  0.5042071572873892
  0.7483454857293013  0.5134084552020973  0.4882581553293199
  0.0056231018253301  0.7506383186540198  0.5017772416335353
  0.2665480029449473  0.7533936815809299  0.4938369963159197
  0.4940821064951447  0.7495537454086969  0.5064059260044959
  0.7410535031617830  0.7465074943064804  0.5000317689633419
  0.9890659413234411  0.0078066911677658  0.7547715171059255
  0.2531431483237626  0.9997966325934589  0.7413866104448826
  0.5012491842445299  0.9917026765038220  0.7490070541781513
  0.7494276848925399  0.0035493434674305  0.7494643464543559
  0.0003227538912193  0.2427673163930411  0.7513920563975363
  0.2552436976933764  0.2488686903123306  0.7604923510736933
  0.5037431154708193  0.2484535637809271  0.7556479871962662
  0.7537671576265883  0.2630046609977238  0.7413571830933798
  0.9950325023797825  0.4979638640935555  0.7391508007262139
  0.2467898537549434  0.4987638028752857  0.7511061714416460
  0.4920528360667652  0.5053942082531654  0.7540305470874052
  0.7508409440748250  0.5056701953651207  0.7535965551353282
  0.9935187088387489  0.7593337553724420  0.7576656504659753
  0.2434020489583313  0.7493422009893610  0.7588703730756454
  0.4930354345294335  0.7462098012902604  0.7546446975297156
  0.7626334714538062  0.7486912743974761  0.7427260259809517
  0.0646496170905216  0.0633254901226464  0.0580868855494450
  0.3148310532296895  0.0691164463917213  0.0661472330611226
  0.5713772921688753  0.0600063912754735  0.0594853195306087
  0.8056066461186393  0.0715778749973512  0.0569215177428489
  0.0638628997649627  0.3116453040455216  0.0666434323503090
  0.3232723343293822  0.3122756181867458  0.0516986426804584
  0.5514191081137286  0.3140181717032213  0.0648723015254485
  0.8159846187708784  0.3080453461831483  0.0730198522657486
  0.0685646030073285  0.5595553819486530  0.0606932365806481
  0.3079481999823035  0.5581794329825613  0.0699705806482733
  0.5629927697496087  0.5639857731443177  0.0639576205557275
  0.8150657461061248  0.5575737918888508  0.0657064389011707
  0.0696605746839613  0.8087672284242197  0.0571260520637088
  0.3171425274770324  0.8044766775409161  0.0614480400846499
  0.5696136319865992  0.8085916265305829  0.0641148691431843
  0.7936550500285249  0.8132320351525323  0.0703206016165686
  0.0597750531046369  0.0613379516839382  0.3100821984137245
  0.3116718139378699  0.0635192430779040  0.3092495281114322
  0.5641000382806126  0.0638363358470968  0.3040071280758913
  0.8069781282584733  0.0710280798745983  0.3222018975736607
  0.0709924878729019  0.3173872669544876  0.2991668545694183
  0.3179222195944657  0.3160362750912108  0.3136089697749057
  0.5591556220101356  0.3261802438241261  0.3007775468058223
  0.8163117209412272  0.3125906529815532  0.3149347800719567
  0.0621869311876276  0.5574719669894201  0.3120722775204783
  0.3209314223711680  0.5499962745988899  0.3087348215582671
  0.5595768120277401  0.5507181448917420  0.3228941963742921
  0.8185392312655553  0.5639133760183371  0.3055064461852171
  0.0599217299397916  0.8080820429407385  0.3207436303397863
  0.3086123255716138  0.8232847147429643  0.3085611552223804
  0.5570489652075241  0.8082806204862779  0.3243404761742420
  0.8159907898921630  0.8218594190127981  0.3140426702500392
  0.0686489999658959  0.0570050876158716  0.5522756203282302
  0.3232674536963357  0.0589253196306203  0.5536114670134927
  0.5673928447952772  0.0701388858647427  0.5493169102123147
  0.8137872542647480  0.0550543323286548  0.5692541955497126
  0.0645236754199079  0.2981315132181468  0.5682675255087584
  0.3119513708861608  0.2991504790264465  0.5681860634300283
  0.5612476297704634  0.3082848772304482  0.5643046722593582
  0.8160432121996449  0.3183326924173977  0.5681025224159924
  0.0664725292005014  0.5668668522142430  0.5492564653236276
  0.3138958772574880  0.5601629992592608  0.5552169385632795
  0.5582277354072430  0.5619041400615681  0.5631294194425170
  0.8197582066383758  0.5463464615907124  0.5606161074328204
  0.0672258613889126  0.8095997135850126  0.5553102164182965
  0.3141243256079132  0.8209628711758421  0.5602811855777454
  0.5638332776649686  0.8067982710794755  0.5696044823458235
  0.8116014211860269  0.8136599564041246  0.5615788398542274
  0.0670105730563429  0.0639215640634127  0.8118076880151461
  0.3061854722497730  0.0585474804474998  0.8102688158583411
  0.5534664805129811  0.0646791113716906  0.8239352052334608
  0.8104114676133343  0.0704305872397367  0.8260665704293816
  0.0514909771307643  0.3102022098455400  0.8185119894488820
  0.3228661050900683  0.3059855217624085  0.8117618929830170
  0.5576176801776374  0.3182914946241882  0.8190015768538259
  0.8124158257889137  0.3131524414654621  0.8100812418181100
  0.0636418766525745  0.5558867572166818  0.8226253214278596
  0.3090566739181175  0.5600166539646009  0.8126201717415139
  0.5603127503994930  0.5663585525912467  0.8105654717571725
  0.8171796339904817  0.5609606948628068  0.8102419881780072
  0.0666151420611519  0.8053933117193762  0.8173991783304941
  0.3087330410522614  0.8145143365730774  0.8055567321265719
  0.5592109106989500  0.8174774930091322  0.8123581353937894
  0.8102712209234014  0.8118456523307416  0.8124752865479833
