kk                                      
   1.00000000000000     
     0.0000000000000000   10.9373336906932952   10.9373336906932952
    10.9373336906932952    0.0000000000000000   10.9373336906932952
    10.9373336906932952   10.9373336906932952    0.0000000000000000
   Si
   128
Direct
  0.0010781670015874  0.9950503593556093  0.0038455154979857
  0.2417681306183610  0.0084090488422319  0.9987472525136099
  0.4884356152169786  0.0221577867323433  0.9849177592450360
  0.7438576784991184  0.0015039262757881  0.0018886215204574
  0.0017137592551322  0.2466660954498536  0.0022714801528423
  0.2514092545621622  0.2441698462066810  0.0026754353550018
  0.4949365192823549  0.2635440600489503  0.9988778314909794
  0.7472359920963640  0.2605716846162380  0.9942558601444844
  0.9995791364803779  0.5104311544536486  0.9889293335450375
  0.2469900502250653  0.4959817898840981  0.0060598552234268
  0.5030941542309293  0.4985918465041550  0.0000317716941254
  0.7540578283363431  0.5010317121760153  0.0001410737768950
  0.9963417259385352  0.7472966808987707  0.9977447489452018
  0.2534824088234231  0.7501900107353165  0.9990420901014403
  0.4996817158972391  0.7412213354319590  0.0022211498667275
  0.7469362043298418  0.7442347851981950  0.0121274961464977
  0.0068602124334589  0.0089040234961502  0.2355879152991207
  0.2599667401204471  0.0040010936985269  0.2468626568881618
  0.4987492974131769  0.9993245848676438  0.2530516314936122
  0.7414146998916706  0.0152739005368403  0.2481985732903809
  0.9974378703195583  0.2354448894908217  0.2617517029777190
  0.2636696093788018  0.2432347016667080  0.2531418500230131
  0.5013792367911023  0.2655378778923563  0.2441908256178209
  0.7419582730911571  0.2423825755582598  0.2488840090726967
  0.9921048017807763  0.5103141672812654  0.2459468334591435
  0.2435015598229100  0.5132708637046335  0.2491007496733246
  0.5029009865073206  0.4975224079355911  0.2405483138941946
  0.7484013452102047  0.4937663677825554  0.2517180606981242
  0.0003051315666980  0.7492226899081942  0.2482757376187266
  0.2403641031220616  0.7504690053282772  0.2565321972949803
  0.5049189151625342  0.7476991159212858  0.2473608778781653
  0.7630206605330585  0.7536994059455751  0.2403623703754292
  0.9895879481260721  0.0050374388199472  0.5067184754995964
  0.2612648036579230  0.9899743498543501  0.4981030989910948
  0.4904203972407046  0.0041774453861123  0.5021525085228049
  0.7433660787797365  0.0035892552754362  0.4989152659705951
  0.9975885911558393  0.2503393890470775  0.4878052444090883
  0.2539320815556962  0.2576401565662039  0.4959668972808160
  0.5044156389031613  0.2518282313232802  0.5080008177982762
  0.7499574257641441  0.2429321599213665  0.5001959052410569
  0.0038665021803155  0.4997000410455925  0.4969306048323148
  0.2543430342640960  0.4913142409731890  0.5072375270046408
  0.5007184172022150  0.4824010852588430  0.5072222634171979
  0.7499725024447770  0.5036855292255353  0.5022192268253036
  0.0025304198427492  0.7571547381592296  0.5006501175819551
  0.2446932578182910  0.7471104659733854  0.5028681961496844
  0.5026202916089844  0.7450994811516551  0.4992297943450765
  0.7389592013424817  0.7624703648825601  0.4999972213772566
  0.0069591974587198  0.9955433121969790  0.7444598092319978
  0.2496955660995468  0.0075758474643024  0.7479715461735381
  0.5000133684090287  0.0035762825229853  0.7423744027920947
  0.7401780719209512  0.9960544011151313  0.7558467225518299
  0.0021788990158882  0.2411045933422784  0.7519657046754631
  0.2567964270498067  0.2389477933342263  0.7505300944351205
  0.4919090942003876  0.2557012071018718  0.7479161947914861
  0.7433647790385720  0.2369852504782628  0.7551441979206075
  0.0060179791296875  0.4966501212551506  0.7413453264986671
  0.2479032484663080  0.5057365134460596  0.7564264322695209
  0.5098326033353757  0.4972316839950466  0.7485535839507023
  0.7444227983424483  0.5013078840858753  0.7567445428373105
  0.9894413869942511  0.7642872374201275  0.7613233815497154
  0.2478353209219151  0.7512553117985092  0.7439325613856269
  0.4984775515519289  0.7465963503590203  0.7479160967489875
  0.7497596663853656  0.7464199537417358  0.7587399989600954
  0.0680155482438920  0.0679096860162787  0.0446990668917238
  0.3095765408607960  0.0586067588758610  0.0663031011825908
  0.5648682092675728  0.0570094681147708  0.0636287110747062
  0.7965188011539368  0.0661573765888761  0.0689870982001466
  0.0708785559880099  0.3184001730945027  0.0578055225242267
  0.3058777150865168  0.3109918638783000  0.0705585105303612
  0.5555367507068141  0.3089205479458883  0.0678041842101749
  0.7996579630670908  0.3142346776039702  0.0663737800542705
  0.0638434401734926  0.5600004305630932  0.0618143865505871
  0.3243762767384268  0.5567359539403824  0.0540888230015639
  0.5738856629298681  0.5589698234585683  0.0510858547302462
  0.8005275495948823  0.5716549758296665  0.0632988345775658
  0.0524327516389960  0.8184028758453650  0.0548747776262317
  0.3142419786468977  0.8169942088136324  0.0544608163414182
  0.5573206091593192  0.8145416967352972  0.0660987970248428
  0.8119539298376353  0.8188730648296101  0.0576478526047524
  0.0657780090947284  0.0548551086999964  0.3082447502088144
  0.3203758781351311  0.0683444089186125  0.3121975042402596
  0.5544697926459250  0.0641677155636131  0.3133229350104685
  0.8003482875558490  0.0631768468086378  0.3165868645076415
  0.0516701766511360  0.3141199645739334  0.3071140866355435
  0.3094131242861380  0.3205151710846579  0.3051258191536803
  0.5644416714849783  0.3082710587142188  0.3155681984206211
  0.8080139901203864  0.3162153465854942  0.3215565221604777
  0.0622747464929674  0.5715424849112054  0.3080692542952264
  0.3133727957077781  0.5577681551370617  0.3223377961659253
  0.5492746138245082  0.5687307958384409  0.3072074531788971
  0.8044018460661349  0.5775155713161482  0.3014275337313848
  0.0502521992108740  0.8128462126049456  0.3184439459493120
  0.3058483207081579  0.7954106742157450  0.3224954680171166
  0.5681659101906007  0.8080572851234891  0.3113475185185308
  0.8224933476941345  0.8023526739555393  0.3158721421180459
  0.0713097009550836  0.0576558764851711  0.5576265251289172
  0.3012979813978944  0.0574829566133346  0.5631435144715482
  0.5588357334934599  0.0528404600057897  0.5724891261541600
  0.8139450912408819  0.0561329786263443  0.5642354825869020
  0.0594408085601899  0.3143805919447047  0.5621665950944887
  0.3214070263184539  0.3016932887154695  0.5588899202772879
  0.5649674890988905  0.3101440864486591  0.5614098091043971
  0.8164308243121496  0.3103617903036380  0.5596720984587478
  0.0590040521061326  0.5677316596978343  0.5647757704845233
  0.3260509858456686  0.5466488397316738  0.5661791947458852
  0.5573123177278418  0.5607456399570268  0.5702385295097088
  0.8142156164684735  0.5739227753266505  0.5661694284173464
  0.0717541688482797  0.8065477568206347  0.5648641252903062
  0.3144538422168353  0.8108076486614237  0.5654410806746029
  0.5676197456946994  0.8109484969010978  0.5634529865289366
  0.8148852266297268  0.8096263434908622  0.5573447042936337
  0.0678743460789306  0.0603469511571504  0.8078597860768326
  0.3047403920755869  0.0549756609940246  0.8202547075257840
  0.5635887520685756  0.0612543194572481  0.8097054924013989
  0.8115059373504394  0.0684557351066317  0.7980562224156031
  0.0666172556816420  0.3155818390538982  0.8138967231758301
  0.3131000270348636  0.3085177241947150  0.8150943164306952
  0.5595660045684170  0.3149339120999599  0.8141807579387930
  0.8141347550684301  0.3194498519448885  0.8040348784116773
  0.0571463224450781  0.5754239137037018  0.8006932625425236
  0.3106265456584580  0.5588274047788957  0.8237467623319858
  0.5526282654106822  0.5642230005376092  0.8156627468043212
  0.8190503333552925  0.5520079353293639  0.8141354527147300
  0.0697235957278153  0.8114412111255120  0.8107219891979440
  0.3127435513885715  0.8236569504762699  0.8009319503315524
  0.5618819524724117  0.8194229939050075  0.8125492972766821
  0.8149375751233094  0.8174453925117504  0.8065541322320371
 
  0.00000000E+00  0.00000000E+00  0.00000000E+00
  0.00000000E+00  0.00000000E+00  0.00000000E+00
  0.00000000E+00  0.00000000E+00  0.00000000E+00
  0.00000000E+00  0.00000000E+00  0.00000000E+00
  0.00000000E+00  0.00000000E+00  0.00000000E+00
  0.00000000E+00  0.00000000E+00  0.00000000E+00
  0.00000000E+00  0.00000000E+00  0.00000000E+00
  0.00000000E+00  0.00000000E+00  0.00000000E+00
  0.00000000E+00  0.00000000E+00  0.00000000E+00
  0.00000000E+00  0.00000000E+00  0.00000000E+00
  0.00000000E+00  0.00000000E+00  0.00000000E+00
  0.00000000E+00  0.00000000E+00  0.00000000E+00
  0.00000000E+00  0.00000000E+00  0.00000000E+00
  0.00000000E+00  0.00000000E+00  0.00000000E+00
  0.00000000E+00  0.00000000E+00  0.00000000E+00
  0.00000000E+00  0.00000000E+00  0.00000000E+00
  0.00000000E+00  0.00000000E+00  0.00000000E+00
  0.00000000E+00  0.00000000E+00  0.00000000E+00
  0.00000000E+00  0.00000000E+00  0.00000000E+00
  0.00000000E+00  0.00000000E+00  0.00000000E+00
  0.00000000E+00  0.00000000E+00  0.00000000E+00
  0.00000000E+00  0.00000000E+00  0.00000000E+00
  0.00000000E+00  0.00000000E+00  0.00000000E+00
  0.00000000E+00  0.00000000E+00  0.00000000E+00
  0.00000000E+00  0.00000000E+00  0.00000000E+00
  0.00000000E+00  0.00000000E+00  0.00000000E+00
  0.00000000E+00  0.00000000E+00  0.00000000E+00
  0.00000000E+00  0.00000000E+00  0.00000000E+00
  0.00000000E+00  0.00000000E+00  0.00000000E+00
  0.00000000E+00  0.00000000E+00  0.00000000E+00
  0.00000000E+00  0.00000000E+00  0.00000000E+00
  0.00000000E+00  0.00000000E+00  0.00000000E+00
  0.00000000E+00  0.00000000E+00  0.00000000E+00
  0.00000000E+00  0.00000000E+00  0.00000000E+00
  0.00000000E+00  0.00000000E+00  0.00000000E+00
  0.00000000E+00  0.00000000E+00  0.00000000E+00
  0.00000000E+00  0.00000000E+00  0.00000000E+00
  0.00000000E+00  0.00000000E+00  0.00000000E+00
  0.00000000E+00  0.00000000E+00  0.00000000E+00
  0.00000000E+00  0.00000000E+00  0.00000000E+00
  0.00000000E+00  0.00000000E+00  0.00000000E+00
  0.00000000E+00  0.00000000E+00  0.00000000E+00
  0.00000000E+00  0.00000000E+00  0.00000000E+00
  0.00000000E+00  0.00000000E+00  0.00000000E+00
  0.00000000E+00  0.00000000E+00  0.00000000E+00
  0.00000000E+00  0.00000000E+00  0.00000000E+00
  0.00000000E+00  0.00000000E+00  0.00000000E+00
  0.00000000E+00  0.00000000E+00  0.00000000E+00
  0.00000000E+00  0.00000000E+00  0.00000000E+00
  0.00000000E+00  0.00000000E+00  0.00000000E+00
  0.00000000E+00  0.00000000E+00  0.00000000E+00
  0.00000000E+00  0.00000000E+00  0.00000000E+00
  0.00000000E+00  0.00000000E+00  0.00000000E+00
  0.00000000E+00  0.00000000E+00  0.00000000E+00
  0.00000000E+00  0.00000000E+00  0.00000000E+00
  0.00000000E+00  0.00000000E+00  0.00000000E+00
  0.00000000E+00  0.00000000E+00  0.00000000E+00
  0.00000000E+00  0.00000000E+00  0.00000000E+00
  0.00000000E+00  0.00000000E+00  0.00000000E+00
  0.00000000E+00  0.00000000E+00  0.00000000E+00
  0.00000000E+00  0.00000000E+00  0.00000000E+00
  0.00000000E+00  0.00000000E+00  0.00000000E+00
  0.00000000E+00  0.00000000E+00  0.00000000E+00
  0.00000000E+00  0.00000000E+00  0.00000000E+00
  0.00000000E+00  0.00000000E+00  0.00000000E+00
  0.00000000E+00  0.00000000E+00  0.00000000E+00
  0.00000000E+00  0.00000000E+00  0.00000000E+00
  0.00000000E+00  0.00000000E+00  0.00000000E+00
  0.00000000E+00  0.00000000E+00  0.00000000E+00
  0.00000000E+00  0.00000000E+00  0.00000000E+00
  0.00000000E+00  0.00000000E+00  0.00000000E+00
  0.00000000E+00  0.00000000E+00  0.00000000E+00
  0.00000000E+00  0.00000000E+00  0.00000000E+00
  0.00000000E+00  0.00000000E+00  0.00000000E+00
  0.00000000E+00  0.00000000E+00  0.00000000E+00
  0.00000000E+00  0.00000000E+00  0.00000000E+00
  0.00000000E+00  0.00000000E+00  0.00000000E+00
  0.00000000E+00  0.00000000E+00  0.00000000E+00
  0.00000000E+00  0.00000000E+00  0.00000000E+00
  0.00000000E+00  0.00000000E+00  0.00000000E+00
  0.00000000E+00  0.00000000E+00  0.00000000E+00
  0.00000000E+00  0.00000000E+00  0.00000000E+00
  0.00000000E+00  0.00000000E+00  0.00000000E+00
  0.00000000E+00  0.00000000E+00  0.00000000E+00
  0.00000000E+00  0.00000000E+00  0.00000000E+00
  0.00000000E+00  0.00000000E+00  0.00000000E+00
  0.00000000E+00  0.00000000E+00  0.00000000E+00
  0.00000000E+00  0.00000000E+00  0.00000000E+00
  0.00000000E+00  0.00000000E+00  0.00000000E+00
  0.00000000E+00  0.00000000E+00  0.00000000E+00
  0.00000000E+00  0.00000000E+00  0.00000000E+00
  0.00000000E+00  0.00000000E+00  0.00000000E+00
  0.00000000E+00  0.00000000E+00  0.00000000E+00
  0.00000000E+00  0.00000000E+00  0.00000000E+00
  0.00000000E+00  0.00000000E+00  0.00000000E+00
  0.00000000E+00  0.00000000E+00  0.00000000E+00
  0.00000000E+00  0.00000000E+00  0.00000000E+00
  0.00000000E+00  0.00000000E+00  0.00000000E+00
  0.00000000E+00  0.00000000E+00  0.00000000E+00
  0.00000000E+00  0.00000000E+00  0.00000000E+00
  0.00000000E+00  0.00000000E+00  0.00000000E+00
  0.00000000E+00  0.00000000E+00  0.00000000E+00
  0.00000000E+00  0.00000000E+00  0.00000000E+00
  0.00000000E+00  0.00000000E+00  0.00000000E+00
  0.00000000E+00  0.00000000E+00  0.00000000E+00
  0.00000000E+00  0.00000000E+00  0.00000000E+00
  0.00000000E+00  0.00000000E+00  0.00000000E+00
  0.00000000E+00  0.00000000E+00  0.00000000E+00
  0.00000000E+00  0.00000000E+00  0.00000000E+00
  0.00000000E+00  0.00000000E+00  0.00000000E+00
  0.00000000E+00  0.00000000E+00  0.00000000E+00
  0.00000000E+00  0.00000000E+00  0.00000000E+00
  0.00000000E+00  0.00000000E+00  0.00000000E+00
  0.00000000E+00  0.00000000E+00  0.00000000E+00
  0.00000000E+00  0.00000000E+00  0.00000000E+00
  0.00000000E+00  0.00000000E+00  0.00000000E+00
  0.00000000E+00  0.00000000E+00  0.00000000E+00
  0.00000000E+00  0.00000000E+00  0.00000000E+00
  0.00000000E+00  0.00000000E+00  0.00000000E+00
  0.00000000E+00  0.00000000E+00  0.00000000E+00
  0.00000000E+00  0.00000000E+00  0.00000000E+00
  0.00000000E+00  0.00000000E+00  0.00000000E+00
  0.00000000E+00  0.00000000E+00  0.00000000E+00
  0.00000000E+00  0.00000000E+00  0.00000000E+00
  0.00000000E+00  0.00000000E+00  0.00000000E+00
  0.00000000E+00  0.00000000E+00  0.00000000E+00
  0.00000000E+00  0.00000000E+00  0.00000000E+00
  0.00000000E+00  0.00000000E+00  0.00000000E+00
