kk
 1.0000000000000000
     0.0000000000000000   10.9373336906932952   10.9373336906932952
    10.9373336906932952    0.0000000000000000   10.9373336906932952
    10.9373336906932952   10.9373336906932952    0.0000000000000000
 128
Direct
  0.0010781670015893  0.9950503593556094  0.0038455154979838
  0.2417681306183644  0.0084090488422304  0.9987472525136076
  0.4884356152169756  0.0221577867323457  0.9849177592450348
  0.7438576784991164  0.0015039262757906  0.0018886215204560
  0.0017137592551310  0.2466660954498539  0.0022714801528412
  0.2514092545621605  0.2441698462066835  0.0026754353549994
  0.4949365192823518  0.2635440600489478  0.9988778314909765
  0.7472359920963638  0.2605716846162360  0.9942558601444816
  0.9995791364803763  0.5104311544536508  0.9889293335450355
  0.2469900502250642  0.4959817898840982  0.0060598552234240
  0.5030941542309285  0.4985918465041522  0.0000317716941233
  0.7540578283363422  0.5010317121760174  0.0001410737768948
  0.9963417259385379  0.7472966808987731  0.9977447489452033
  0.2534824088234198  0.7501900107353179  0.9990420901014416
  0.4996817158972395  0.7412213354319568  0.0022211498667245
  0.7469362043298404  0.7442347851981974  0.0121274961464981
  0.0068602124334624  0.0089040234961481  0.2355879152991217
  0.2599667401204481  0.0040010936985278  0.2468626568881623
  0.4987492974131780  0.9993245848676429  0.2530516314936128
  0.7414146998916689  0.0152739005368373  0.2481985732903801
  0.9974378703195582  0.2354448894908210  0.2617517029777207
  0.2636696093788019  0.2432347016667099  0.2531418500230110
  0.5013792367911041  0.2655378778923556  0.2441908256178243
  0.7419582730911539  0.2423825755582565  0.2488840090726950
  0.9921048017807746  0.5103141672812621  0.2459468334591437
  0.2435015598229118  0.5132708637046358  0.2491007496733275
  0.5029009865073237  0.4975224079355900  0.2405483138941977
  0.7484013452102023  0.4937663677825544  0.2517180606981252
  0.0003051315666973  0.7492226899081957  0.2482757376187285
  0.2403641031220592  0.7504690053282765  0.2565321972949773
  0.5049189151625374  0.7476991159212888  0.2473608778781625
  0.7630206605330619  0.7536994059455721  0.2403623703754283
  0.9895879481260736  0.0050374388199467  0.5067184754995945
  0.2612648036579209  0.9899743498543468  0.4981030989910983
  0.4904203972407035  0.0041774453861150  0.5021525085228041
  0.7433660787797393  0.0035892552754382  0.4989152659705942
  0.9975885911558386  0.2503393890470779  0.4878052444090892
  0.2539320815556992  0.2576401565662066  0.4959668972808144
  0.5044156389031584  0.2518282313232790  0.5080008177982760
  0.7499574257641447  0.2429321599213644  0.5001959052410553
  0.0038665021803123  0.4997000410455923  0.4969306048323179
  0.2543430342640993  0.4913142409731888  0.5072375270046412
  0.5007184172022165  0.4824010852588461  0.5072222634171974
  0.7499725024447798  0.5036855292255373  0.5022192268253034
  0.0025304198427460  0.7571547381592302  0.5006501175819541
  0.2446932578182911  0.7471104659733884  0.5028681961496821
  0.5026202916089869  0.7450994811516545  0.4992297943450740
  0.7389592013424848  0.7624703648825579  0.4999972213772561
  0.0069591974587173  0.9955433121969801  0.7444598092319963
  0.2496955660995457  0.0075758474643033  0.7479715461735365
  0.5000133684090315  0.0035762825229887  0.7423744027920934
  0.7401780719209482  0.9960544011151328  0.7558467225518302
  0.0021788990158862  0.2411045933422793  0.7519657046754630
  0.2567964270498090  0.2389477933342251  0.7505300944351219
  0.4919090942003873  0.2557012071018723  0.7479161947914839
  0.7433647790385708  0.2369852504782652  0.7551441979206106
  0.0060179791296846  0.4966501212551488  0.7413453264986640
  0.2479032484663113  0.5057365134460597  0.7564264322695179
  0.5098326033353758  0.4972316839950450  0.7485535839507043
  0.7444227983424460  0.5013078840858755  0.7567445428373138
  0.9894413869942477  0.7642872374201276  0.7613233815497151
  0.2478353209219160  0.7512553117985120  0.7439325613856301
  0.4984775515519286  0.7465963503590216  0.7479160967489881
  0.7497596663853626  0.7464199537417359  0.7587399989600943
  0.0680155482438918  0.0679096860162769  0.0446990668917205
  0.3095765408607947  0.0586067588758576  0.0663031011825883
  0.5648682092675738  0.0570094681147681  0.0636287110747069
  0.7965188011539339  0.0661573765888765  0.0689870982001482
  0.0708785559880080  0.3184001730945057  0.0578055225242233
  0.3058777150865196  0.3109918638782974  0.0705585105303603
  0.5555367507068161  0.3089205479458856  0.0678041842101749
  0.7996579630670914  0.3142346776039701  0.0663737800542679
  0.0638434401734900  0.5600004305630958  0.0618143865505889
  0.3243762767384243  0.5567359539403836  0.0540888230015616
  0.5738856629298689  0.5589698234585675  0.0510858547302458
  0.8005275495948845  0.5716549758296650  0.0632988345775650
  0.0524327516389980  0.8184028758453674  0.0548747776262349
  0.3142419786468945  0.8169942088136292  0.0544608163414202
  0.5573206091593205  0.8145416967352960  0.0660987970248432
  0.8119539298376334  0.8188730648296101  0.0576478526047529
  0.0657780090947273  0.0548551086999932  0.3082447502088128
  0.3203758781351311  0.0683444089186090  0.3121975042402569
  0.5544697926459259  0.0641677155636120  0.3133229350104719
  0.8003482875558510  0.0631768468086407  0.3165868645076385
  0.0516701766511346  0.3141199645739334  0.3071140866355421
  0.3094131242861415  0.3205151710846552  0.3051258191536778
  0.5644416714849755  0.3082710587142192  0.3155681984206240
  0.8080139901203891  0.3162153465854944  0.3215565221604788
  0.0622747464929646  0.5715424849112067  0.3080692542952296
  0.3133727957077806  0.5577681551370636  0.3223377961659249
  0.5492746138245077  0.5687307958384404  0.3072074531788975
  0.8044018460661376  0.5775155713161513  0.3014275337313823
  0.0502521992108764  0.8128462126049463  0.3184439459493145
  0.3058483207081606  0.7954106742157421  0.3224954680171156
  0.5681659101906006  0.8080572851234874  0.3113475185185337
  0.8224933476941340  0.8023526739555428  0.3158721421180491
  0.0713097009550803  0.0576558764851713  0.5576265251289149
  0.3012979813978915  0.0574829566133357  0.5631435144715513
  0.5588357334934565  0.0528404600057864  0.5724891261541585
  0.8139450912408812  0.0561329786263476  0.5642354825869053
  0.0594408085601873  0.3143805919447052  0.5621665950944903
  0.3214070263184525  0.3016932887154692  0.5588899202772882
  0.5649674890988914  0.3101440864486570  0.5614098091043968
  0.8164308243121476  0.3103617903036410  0.5596720984587459
  0.0590040521061306  0.5677316596978318  0.5647757704845208
  0.3260509858456716  0.5466488397316703  0.5661791947458855
  0.5573123177278404  0.5607456399570244  0.5702385295097054
  0.8142156164684713  0.5739227753266499  0.5661694284173457
  0.0717541688482800  0.8065477568206352  0.5648641252903088
  0.3144538422168348  0.8108076486614202  0.5654410806745993
  0.5676197456946975  0.8109484969011002  0.5634529865289380
  0.8148852266297303  0.8096263434908596  0.5573447042936368
  0.0678743460789340  0.0603469511571501  0.8078597860768336
  0.3047403920755867  0.0549756609940224  0.8202547075257869
  0.5635887520685728  0.0612543194572506  0.8097054924013972
  0.8115059373504389  0.0684557351066307  0.7980562224156009
  0.0666172556816397  0.3155818390538976  0.8138967231758300
  0.3131000270348652  0.3085177241947139  0.8150943164306939
  0.5595660045684197  0.3149339120999576  0.8141807579387957
  0.8141347550684319  0.3194498519448861  0.8040348784116760
  0.0571463224450794  0.5754239137037027  0.8006932625425244
  0.3106265456584569  0.5588274047788981  0.8237467623319882
  0.5526282654106789  0.5642230005376059  0.8156627468043244
  0.8190503333552894  0.5520079353293663  0.8141354527147302
  0.0697235957278145  0.8114412111255153  0.8107219891979424
  0.3127435513885707  0.8236569504762721  0.8009319503315512
  0.5618819524724112  0.8194229939050061  0.8125492972766798
  0.8149375751233071  0.8174453925117494  0.8065541322320372
