kk                                      
   1.00000000000000     
     0.0000000000000000   10.9373336906932952   10.9373336906932952
    10.9373336906932952    0.0000000000000000   10.9373336906932952
    10.9373336906932952   10.9373336906932952    0.0000000000000000
   Si
   128
Direct
  0.9884258382625646  0.0181232773115170  0.0043411030598222
  0.2434556479203422  0.9968304054408108  0.0105879227689911
  0.4882863921403953  0.9895054307214295  0.0157610753895696
  0.7480082130714862  0.0099785012920819  0.9942979488920969
  0.9989465996116635  0.2518854963986641  0.9976202861886065
  0.2548158674635488  0.2468587618551155  0.9984945290948914
  0.5050542107782903  0.2399415663321562  0.0002428817143993
  0.7500682401180825  0.2481609328675347  0.9978871120786437
  0.9928689225273430  0.5083156854860960  0.9981913183076756
  0.2418922197914171  0.5091019303674642  0.9927028190527523
  0.5036970272388928  0.4984919367919787  0.0029595264009217
  0.7565427012151389  0.4942746283658792  0.0008409368089275
  0.9867852834736226  0.7464027849198231  0.0046673715996945
  0.2588460939162971  0.7519932338815067  0.0046625649413272
  0.5057338160742972  0.7464644376548080  0.0118472154118194
  0.7560375246733528  0.7531723001323272  0.9869178546631190
  0.9993593177552498  0.0037779303606627  0.2465672157828109
  0.2621212289417301  0.9939353450657720  0.2445811745773412
  0.4975630589253868  0.0022805232522458  0.2532571035803599
  0.7445516945875283  0.9957892996690418  0.2478445685333810
  0.9989548514768885  0.2537188667986428  0.2484598759487255
  0.2531656442100214  0.2391457952260936  0.2587677700348294
  0.4955279878611023  0.2562077801037219  0.2525274703699125
  0.7651234634117543  0.2500703109893863  0.2319209450028907
  0.9972852502745440  0.5111896015850022  0.2541607974087938
  0.2527583974741106  0.5017707097614021  0.2495171852477895
  0.4980712396532709  0.4855646512994269  0.2569802394599776
  0.7623473234854288  0.4946632624144485  0.2469635818771039
  0.9944208959666980  0.7533512621313676  0.2480363201829263
  0.2439768788659435  0.7632799333599110  0.2413578463138961
  0.4969481316078301  0.7573183181424881  0.2477025738704484
  0.7510321383239003  0.7354980420764150  0.2561786673487276
  0.0072733717284805  0.9992010300428547  0.5079616103885343
  0.2567794492400779  0.0145595781441017  0.4923373197054417
  0.4988219332939536  0.9909863124105414  0.5081905717437181
  0.7666839719488223  0.9963524032441953  0.4946609174155867
  0.9908231080357410  0.2583245510336525  0.4985189158871108
  0.2494589750194152  0.2524737332496727  0.4980766865590027
  0.4968523170994530  0.2560923166090419  0.4968276151974536
  0.7581234726767860  0.2492914541925018  0.4987682779822791
  0.9848396722296471  0.5111163850182834  0.4960547519539418
  0.2497915613953481  0.5058232264943427  0.4969459356979726
  0.5041508415828915  0.4877192712030407  0.5022330786468174
  0.7442692845162640  0.5079708588226453  0.4871840950854747
  0.9848849402066620  0.7502605052501394  0.5006363171004580
  0.2512647660715857  0.7467899356660794  0.4943586209807123
  0.5005943219970632  0.7489879208625752  0.5053196730144194
  0.7558541391750566  0.7531981477166809  0.4925587240419702
  0.9962955270819975  0.9958384662333444  0.7570159577810216
  0.2438079439981635  0.0062415662984563  0.7502234320697312
  0.5076076828375804  0.9920409918812254  0.7548690881554663
  0.7434516443310173  0.9998025157498205  0.7563874796270227
  0.0037101584729555  0.2454734832769532  0.7442209220220803
  0.2578185143395544  0.2449629134937084  0.7458929852000651
  0.5105371002477668  0.2550123863859426  0.7383164504523947
  0.7536209689989093  0.2433730246832511  0.7550474294327429
  0.9964918904527877  0.5004627005409858  0.7467090662772691
  0.2490193466251753  0.5019675486824511  0.7447065445077712
  0.4900531396722272  0.4949528909880883  0.7634563178297782
  0.7493523438095835  0.4933356082338776  0.7486379203705766
  0.9955127855328385  0.7508030268629469  0.7505483166681373
  0.2534823223841158  0.7554047591086217  0.7448973587670835
  0.5032064148510003  0.7429438979462972  0.7452467717852045
  0.7450864380326081  0.7490591653086653  0.7568038007600677
  0.0621972396860428  0.0572457078892441  0.0685689709131907
  0.3073305855328172  0.0621853968061217  0.0580081050579935
  0.5594676542020238  0.0631272031498682  0.0567376155466377
  0.8117611930949025  0.0591194900475145  0.0617659873114675
  0.0651505762475111  0.3066612041663532  0.0587841353336387
  0.3263344510879662  0.2960048114220157  0.0666723470421786
  0.5594522119001155  0.3152852156944661  0.0730328851626254
  0.8205233395158729  0.2941339917617967  0.0592038049741461
  0.0600250759676086  0.5622413132547379  0.0627747482461771
  0.3157747495435288  0.5546437115296925  0.0619845841084015
  0.5578891763541165  0.5662288309116050  0.0555325772836923
  0.8067233760407788  0.5596945777657680  0.0682357663732205
  0.0727655209705844  0.7952385592448294  0.0687445466519350
  0.3224874621656610  0.8020387995415206  0.0620744898642513
  0.5535252144554832  0.8170953353307340  0.0690394983782525
  0.8120064412814045  0.8133150216086094  0.0629112325276253
  0.0685698274969369  0.0648119627312695  0.3160578550396949
  0.3199092595810811  0.0607380910677406  0.3132689900273888
  0.5679833549672324  0.0590254046819609  0.3014074062213155
  0.8088770069988058  0.0648574167933731  0.3174939246456461
  0.0690090918921484  0.2986859939629696  0.3195895879271760
  0.3127535561645018  0.3126513909641773  0.3105298668127219
  0.5721195018655649  0.3027695616220498  0.3176350224836497
  0.8106878230905679  0.3194069997172804  0.3074517467665032
  0.0682418044756758  0.5556551146664646  0.3148955704786047
  0.3143707800883320  0.5639039538919874  0.3137991276683607
  0.5594234768593580  0.5618588881394686  0.3152985298146760
  0.8296910680140215  0.5573729210565759  0.3128093448100486
  0.0596884105323099  0.8116781250212739  0.3163255337131545
  0.3153415089082046  0.8097407216435499  0.3050298533158085
  0.5606649260018557  0.8135451837339502  0.3088365617069044
  0.8120308947448578  0.8256252640120252  0.3039630194732155
  0.0557528608011495  0.0724340138185511  0.5695025525637547
  0.3120156905490106  0.0741053669387455  0.5581258049507909
  0.5564401053256844  0.0592631998851161  0.5626532547139078
  0.8164318468033116  0.0579327190704504  0.5630236452995163
  0.0616889916119163  0.3157413094069099  0.5630523858447063
  0.3143179866912362  0.3047453666613364  0.5616024137664937
  0.5645290124570721  0.3146681302789816  0.5580126819337465
  0.8142333067746250  0.3043922031283515  0.5699348409408884
  0.0700188171571412  0.5474301334080494  0.5616623095787077
  0.3124985675271645  0.5621618123127163  0.5630337648932979
  0.5701485850855690  0.5654808933821940  0.5441848747616405
  0.8075899847078176  0.5732438318540787  0.5568635807518874
  0.0566062729510293  0.8132477172848667  0.5588210352267424
  0.3185883726596686  0.8039408128298788  0.5648019382306586
  0.5736438378879640  0.8069124927071485  0.5618360978823915
  0.8072537067894601  0.8148275858665670  0.5691430012188974
  0.0613802603739160  0.0545759565573007  0.8169563659653960
  0.3144133690292534  0.0499254525085320  0.8128390414737225
  0.5642734866674175  0.0624339239958829  0.8188877239347505
  0.8194707535895489  0.0588471315338666  0.8145160929285140
  0.0662229782164943  0.3136413340005078  0.8014461431661388
  0.3085143223905931  0.3102601506032414  0.8130177356244985
  0.5556025517800478  0.3177957881463485  0.8072470736789512
  0.8148032877550619  0.3130260711554911  0.8092590685939172
  0.0514283112612333  0.5784902341420874  0.7959584614506241
  0.3101263342142175  0.5575104799897588  0.8182579099299687
  0.5649210383418861  0.5728114756952465  0.8084345059757041
  0.8040242598891822  0.5639420085405717  0.8126852724070730
  0.0644068089484335  0.8020284577652532  0.8218927256417032
  0.3151099399753221  0.8057994122221572  0.8074801185727765
  0.5653204845608713  0.8065672302777429  0.8219825665849285
  0.8054811664710542  0.8128044447220759  0.8098343679809474
 
  0.00000000E+00  0.00000000E+00  0.00000000E+00
  0.00000000E+00  0.00000000E+00  0.00000000E+00
  0.00000000E+00  0.00000000E+00  0.00000000E+00
  0.00000000E+00  0.00000000E+00  0.00000000E+00
  0.00000000E+00  0.00000000E+00  0.00000000E+00
  0.00000000E+00  0.00000000E+00  0.00000000E+00
  0.00000000E+00  0.00000000E+00  0.00000000E+00
  0.00000000E+00  0.00000000E+00  0.00000000E+00
  0.00000000E+00  0.00000000E+00  0.00000000E+00
  0.00000000E+00  0.00000000E+00  0.00000000E+00
  0.00000000E+00  0.00000000E+00  0.00000000E+00
  0.00000000E+00  0.00000000E+00  0.00000000E+00
  0.00000000E+00  0.00000000E+00  0.00000000E+00
  0.00000000E+00  0.00000000E+00  0.00000000E+00
  0.00000000E+00  0.00000000E+00  0.00000000E+00
  0.00000000E+00  0.00000000E+00  0.00000000E+00
  0.00000000E+00  0.00000000E+00  0.00000000E+00
  0.00000000E+00  0.00000000E+00  0.00000000E+00
  0.00000000E+00  0.00000000E+00  0.00000000E+00
  0.00000000E+00  0.00000000E+00  0.00000000E+00
  0.00000000E+00  0.00000000E+00  0.00000000E+00
  0.00000000E+00  0.00000000E+00  0.00000000E+00
  0.00000000E+00  0.00000000E+00  0.00000000E+00
  0.00000000E+00  0.00000000E+00  0.00000000E+00
  0.00000000E+00  0.00000000E+00  0.00000000E+00
  0.00000000E+00  0.00000000E+00  0.00000000E+00
  0.00000000E+00  0.00000000E+00  0.00000000E+00
  0.00000000E+00  0.00000000E+00  0.00000000E+00
  0.00000000E+00  0.00000000E+00  0.00000000E+00
  0.00000000E+00  0.00000000E+00  0.00000000E+00
  0.00000000E+00  0.00000000E+00  0.00000000E+00
  0.00000000E+00  0.00000000E+00  0.00000000E+00
  0.00000000E+00  0.00000000E+00  0.00000000E+00
  0.00000000E+00  0.00000000E+00  0.00000000E+00
  0.00000000E+00  0.00000000E+00  0.00000000E+00
  0.00000000E+00  0.00000000E+00  0.00000000E+00
  0.00000000E+00  0.00000000E+00  0.00000000E+00
  0.00000000E+00  0.00000000E+00  0.00000000E+00
  0.00000000E+00  0.00000000E+00  0.00000000E+00
  0.00000000E+00  0.00000000E+00  0.00000000E+00
  0.00000000E+00  0.00000000E+00  0.00000000E+00
  0.00000000E+00  0.00000000E+00  0.00000000E+00
  0.00000000E+00  0.00000000E+00  0.00000000E+00
  0.00000000E+00  0.00000000E+00  0.00000000E+00
  0.00000000E+00  0.00000000E+00  0.00000000E+00
  0.00000000E+00  0.00000000E+00  0.00000000E+00
  0.00000000E+00  0.00000000E+00  0.00000000E+00
  0.00000000E+00  0.00000000E+00  0.00000000E+00
  0.00000000E+00  0.00000000E+00  0.00000000E+00
  0.00000000E+00  0.00000000E+00  0.00000000E+00
  0.00000000E+00  0.00000000E+00  0.00000000E+00
  0.00000000E+00  0.00000000E+00  0.00000000E+00
  0.00000000E+00  0.00000000E+00  0.00000000E+00
  0.00000000E+00  0.00000000E+00  0.00000000E+00
  0.00000000E+00  0.00000000E+00  0.00000000E+00
  0.00000000E+00  0.00000000E+00  0.00000000E+00
  0.00000000E+00  0.00000000E+00  0.00000000E+00
  0.00000000E+00  0.00000000E+00  0.00000000E+00
  0.00000000E+00  0.00000000E+00  0.00000000E+00
  0.00000000E+00  0.00000000E+00  0.00000000E+00
  0.00000000E+00  0.00000000E+00  0.00000000E+00
  0.00000000E+00  0.00000000E+00  0.00000000E+00
  0.00000000E+00  0.00000000E+00  0.00000000E+00
  0.00000000E+00  0.00000000E+00  0.00000000E+00
  0.00000000E+00  0.00000000E+00  0.00000000E+00
  0.00000000E+00  0.00000000E+00  0.00000000E+00
  0.00000000E+00  0.00000000E+00  0.00000000E+00
  0.00000000E+00  0.00000000E+00  0.00000000E+00
  0.00000000E+00  0.00000000E+00  0.00000000E+00
  0.00000000E+00  0.00000000E+00  0.00000000E+00
  0.00000000E+00  0.00000000E+00  0.00000000E+00
  0.00000000E+00  0.00000000E+00  0.00000000E+00
  0.00000000E+00  0.00000000E+00  0.00000000E+00
  0.00000000E+00  0.00000000E+00  0.00000000E+00
  0.00000000E+00  0.00000000E+00  0.00000000E+00
  0.00000000E+00  0.00000000E+00  0.00000000E+00
  0.00000000E+00  0.00000000E+00  0.00000000E+00
  0.00000000E+00  0.00000000E+00  0.00000000E+00
  0.00000000E+00  0.00000000E+00  0.00000000E+00
  0.00000000E+00  0.00000000E+00  0.00000000E+00
  0.00000000E+00  0.00000000E+00  0.00000000E+00
  0.00000000E+00  0.00000000E+00  0.00000000E+00
  0.00000000E+00  0.00000000E+00  0.00000000E+00
  0.00000000E+00  0.00000000E+00  0.00000000E+00
  0.00000000E+00  0.00000000E+00  0.00000000E+00
  0.00000000E+00  0.00000000E+00  0.00000000E+00
  0.00000000E+00  0.00000000E+00  0.00000000E+00
  0.00000000E+00  0.00000000E+00  0.00000000E+00
  0.00000000E+00  0.00000000E+00  0.00000000E+00
  0.00000000E+00  0.00000000E+00  0.00000000E+00
  0.00000000E+00  0.00000000E+00  0.00000000E+00
  0.00000000E+00  0.00000000E+00  0.00000000E+00
  0.00000000E+00  0.00000000E+00  0.00000000E+00
  0.00000000E+00  0.00000000E+00  0.00000000E+00
  0.00000000E+00  0.00000000E+00  0.00000000E+00
  0.00000000E+00  0.00000000E+00  0.00000000E+00
  0.00000000E+00  0.00000000E+00  0.00000000E+00
  0.00000000E+00  0.00000000E+00  0.00000000E+00
  0.00000000E+00  0.00000000E+00  0.00000000E+00
  0.00000000E+00  0.00000000E+00  0.00000000E+00
  0.00000000E+00  0.00000000E+00  0.00000000E+00
  0.00000000E+00  0.00000000E+00  0.00000000E+00
  0.00000000E+00  0.00000000E+00  0.00000000E+00
  0.00000000E+00  0.00000000E+00  0.00000000E+00
  0.00000000E+00  0.00000000E+00  0.00000000E+00
  0.00000000E+00  0.00000000E+00  0.00000000E+00
  0.00000000E+00  0.00000000E+00  0.00000000E+00
  0.00000000E+00  0.00000000E+00  0.00000000E+00
  0.00000000E+00  0.00000000E+00  0.00000000E+00
  0.00000000E+00  0.00000000E+00  0.00000000E+00
  0.00000000E+00  0.00000000E+00  0.00000000E+00
  0.00000000E+00  0.00000000E+00  0.00000000E+00
  0.00000000E+00  0.00000000E+00  0.00000000E+00
  0.00000000E+00  0.00000000E+00  0.00000000E+00
  0.00000000E+00  0.00000000E+00  0.00000000E+00
  0.00000000E+00  0.00000000E+00  0.00000000E+00
  0.00000000E+00  0.00000000E+00  0.00000000E+00
  0.00000000E+00  0.00000000E+00  0.00000000E+00
  0.00000000E+00  0.00000000E+00  0.00000000E+00
  0.00000000E+00  0.00000000E+00  0.00000000E+00
  0.00000000E+00  0.00000000E+00  0.00000000E+00
  0.00000000E+00  0.00000000E+00  0.00000000E+00
  0.00000000E+00  0.00000000E+00  0.00000000E+00
  0.00000000E+00  0.00000000E+00  0.00000000E+00
  0.00000000E+00  0.00000000E+00  0.00000000E+00
  0.00000000E+00  0.00000000E+00  0.00000000E+00
  0.00000000E+00  0.00000000E+00  0.00000000E+00
  0.00000000E+00  0.00000000E+00  0.00000000E+00
