kk
 1.0000000000000000
     0.0000000000000000   10.9373336906932952   10.9373336906932952
    10.9373336906932952    0.0000000000000000   10.9373336906932952
    10.9373336906932952   10.9373336906932952    0.0000000000000000
 128
Direct
  0.9884258382625621  0.0181232773115137  0.0043411030598197
  0.2434556479203394  0.9968304054408093  0.0105879227689908
  0.4882863921403924  0.9895054307214315  0.0157610753895691
  0.7480082130714848  0.0099785012920832  0.9942979488920941
  0.9989465996116631  0.2518854963986669  0.9976202861886081
  0.2548158674635519  0.2468587618551148  0.9984945290948938
  0.5050542107782894  0.2399415663321572  0.0002428817143995
  0.7500682401180836  0.2481609328675369  0.9978871120786444
  0.9928689225273447  0.5083156854860927  0.9981913183076754
  0.2418922197914150  0.5091019303674623  0.9927028190527530
  0.5036970272388956  0.4984919367919772  0.0029595264009234
  0.7565427012151392  0.4942746283658803  0.0008409368089268
  0.9867852834736218  0.7464027849198243  0.0046673715996935
  0.2588460939162953  0.7519932338815088  0.0046625649413248
  0.5057338160743000  0.7464644376548097  0.0118472154118188
  0.7560375246733534  0.7531723001323271  0.9869178546631189
  0.9993593177552519  0.0037779303606635  0.2465672157828118
  0.2621212289417326  0.9939353450657687  0.2445811745773444
  0.4975630589253834  0.0022805232522466  0.2532571035803625
  0.7445516945875282  0.9957892996690449  0.2478445685333800
  0.9989548514768860  0.2537188667986394  0.2484598759487232
  0.2531656442100226  0.2391457952260916  0.2587677700348266
  0.4955279878610998  0.2562077801037232  0.2525274703699137
  0.7651234634117529  0.2500703109893874  0.2319209450028890
  0.9972852502745412  0.5111896015850038  0.2541607974087953
  0.2527583974741074  0.5017707097614049  0.2495171852477910
  0.4980712396532744  0.4855646512994261  0.2569802394599807
  0.7623473234854307  0.4946632624144451  0.2469635818771046
  0.9944208959667009  0.7533512621313672  0.2480363201829247
  0.2439768788659468  0.7632799333599115  0.2413578463138985
  0.4969481316078325  0.7573183181424848  0.2477025738704453
  0.7510321383238986  0.7354980420764159  0.2561786673487287
  0.0072733717284789  0.9992010300428577  0.5079616103885344
  0.2567794492400784  0.0145595781440996  0.4923373197054446
  0.4988219332939507  0.9909863124105441  0.5081905717437212
  0.7666839719488254  0.9963524032441924  0.4946609174155845
  0.9908231080357387  0.2583245510336494  0.4985189158871128
  0.2494589750194165  0.2524737332496695  0.4980766865590036
  0.4968523170994539  0.2560923166090417  0.4968276151974568
  0.7581234726767877  0.2492914541925020  0.4987682779822771
  0.9848396722296487  0.5111163850182843  0.4960547519539451
  0.2497915613953496  0.5058232264943406  0.4969459356979757
  0.5041508415828919  0.4877192712030433  0.5022330786468148
  0.7442692845162646  0.5079708588226445  0.4871840950854715
  0.9848849402066643  0.7502605052501419  0.5006363171004575
  0.2512647660715892  0.7467899356660813  0.4943586209807126
  0.5005943219970628  0.7489879208625730  0.5053196730144213
  0.7558541391750547  0.7531981477166830  0.4925587240419678
  0.9962955270819966  0.9958384662333455  0.7570159577810229
  0.2438079439981661  0.0062415662984585  0.7502234320697333
  0.5076076828375827  0.9920409918812269  0.7548690881554635
  0.7434516443310140  0.9998025157498237  0.7563874796270209
  0.0037101584729563  0.2454734832769514  0.7442209220220837
  0.2578185143395547  0.2449629134937092  0.7458929852000632
  0.5105371002477639  0.2550123863859460  0.7383164504523929
  0.7536209689989092  0.2433730246832516  0.7550474294327417
  0.9964918904527901  0.5004627005409875  0.7467090662772657
  0.2490193466251770  0.5019675486824490  0.7447065445077697
  0.4900531396722269  0.4949528909880858  0.7634563178297817
  0.7493523438095807  0.4933356082338765  0.7486379203705786
  0.9955127855328415  0.7508030268629446  0.7505483166681387
  0.2534823223841144  0.7554047591086190  0.7448973587670802
  0.5032064148510031  0.7429438979462949  0.7452467717852027
  0.7450864380326058  0.7490591653086681  0.7568038007600650
  0.0621972396860451  0.0572457078892419  0.0685689709131939
  0.3073305855328181  0.0621853968061228  0.0580081050579968
  0.5594676542020223  0.0631272031498679  0.0567376155466392
  0.8117611930949054  0.0591194900475116  0.0617659873114678
  0.0651505762475144  0.3066612041663538  0.0587841353336379
  0.3263344510879642  0.2960048114220148  0.0666723470421766
  0.5594522119001180  0.3152852156944637  0.0730328851626221
  0.8205233395158706  0.2941339917617952  0.0592038049741463
  0.0600250759676054  0.5622413132547365  0.0627747482461749
  0.3157747495435275  0.5546437115296912  0.0619845841084031
  0.5578891763541139  0.5662288309116050  0.0555325772836918
  0.8067233760407757  0.5596945777657704  0.0682357663732232
  0.0727655209705828  0.7952385592448267  0.0687445466519336
  0.3224874621656622  0.8020387995415218  0.0620744898642479
  0.5535252144554856  0.8170953353307328  0.0690394983782555
  0.8120064412814060  0.8133150216086069  0.0629112325276275
  0.0685698274969392  0.0648119627312674  0.3160578550396935
  0.3199092595810826  0.0607380910677405  0.3132689900273861
  0.5679833549672350  0.0590254046819615  0.3014074062213135
  0.8088770069988046  0.0648574167933755  0.3174939246456477
  0.0690090918921453  0.2986859939629690  0.3195895879271776
  0.3127535561645003  0.3126513909641774  0.3105298668127242
  0.5721195018655643  0.3027695616220519  0.3176350224836513
  0.8106878230905697  0.3194069997172837  0.3074517467665009
  0.0682418044756760  0.5556551146664662  0.3148955704786040
  0.3143707800883327  0.5639039538919880  0.3137991276683582
  0.5594234768593567  0.5618588881394672  0.3152985298146738
  0.8296910680140216  0.5573729210565769  0.3128093448100503
  0.0596884105323074  0.8116781250212743  0.3163255337131527
  0.3153415089082068  0.8097407216435470  0.3050298533158107
  0.5606649260018591  0.8135451837339520  0.3088365617069044
  0.8120308947448561  0.8256252640120231  0.3039630194732176
  0.0557528608011527  0.0724340138185529  0.5695025525637530
  0.3120156905490077  0.0741053669387447  0.5581258049507878
  0.5564401053256823  0.0592631998851163  0.5626532547139043
  0.8164318468033098  0.0579327190704536  0.5630236452995172
  0.0616889916119178  0.3157413094069078  0.5630523858447030
  0.3143179866912397  0.3047453666613338  0.5616024137664910
  0.5645290124570699  0.3146681302789816  0.5580126819337482
  0.8142333067746272  0.3043922031283500  0.5699348409408868
  0.0700188171571398  0.5474301334080509  0.5616623095787073
  0.3124985675271679  0.5621618123127168  0.5630337648932954
  0.5701485850855675  0.5654808933821929  0.5441848747616372
  0.8075899847078173  0.5732438318540806  0.5568635807518882
  0.0566062729510319  0.8132477172848664  0.5588210352267432
  0.3185883726596707  0.8039408128298753  0.5648019382306595
  0.5736438378879617  0.8069124927071458  0.5618360978823884
  0.8072537067894635  0.8148275858665683  0.5691430012188996
  0.0613802603739181  0.0545759565573025  0.8169563659653956
  0.3144133690292499  0.0499254525085307  0.8128390414737245
  0.5642734866674197  0.0624339239958831  0.8188877239347526
  0.8194707535895462  0.0588471315338672  0.8145160929285122
  0.0662229782164918  0.3136413340005098  0.8014461431661419
  0.3085143223905941  0.3102601506032426  0.8130177356244987
  0.5556025517800466  0.3177957881463455  0.8072470736789491
  0.8148032877550633  0.3130260711554888  0.8092590685939173
  0.0514283112612336  0.5784902341420870  0.7959584614506243
  0.3101263342142147  0.5575104799897574  0.8182579099299692
  0.5649210383418894  0.5728114756952437  0.8084345059757068
  0.8040242598891851  0.5639420085405744  0.8126852724070703
  0.0644068089484361  0.8020284577652567  0.8218927256416997
  0.3151099399753209  0.8057994122221590  0.8074801185727787
  0.5653204845608678  0.8065672302777399  0.8219825665849284
  0.8054811664710515  0.8128044447220772  0.8098343679809501
