kk                                      
   1.00000000000000     
     0.0000000000000000   10.9373336906932952   10.9373336906932952
    10.9373336906932952    0.0000000000000000   10.9373336906932952
    10.9373336906932952   10.9373336906932952    0.0000000000000000
   Si
   128
Direct
  0.9967821344870060  0.0044000883518081  0.9972941487076810
  0.2539994009889313  0.9855969045106292  0.0025695691696015
  0.5004725727328889  0.0071490215391208  0.0018427295405345
  0.7464913232694244  0.0088562469469622  0.0093167931777103
  0.0087805837765771  0.2492224841877260  0.0086652169197521
  0.2427431989311231  0.2641950796080934  0.9942148069051555
  0.5042567402032887  0.2526221809447691  0.9992867021102825
  0.7561077171978070  0.2404481391492652  0.0029155861068517
  0.9984733019505967  0.5124095228697882  0.0114965836265171
  0.2626675280063751  0.4932628127631062  0.0001510207169844
  0.5083642448752599  0.5060493719918284  0.9812177344950683
  0.7495706794030568  0.4974148812877175  0.0065712470782060
  0.0017024785948365  0.7538254282976098  0.9962706690149119
  0.2551406103291285  0.7351252181285375  0.9980749287133008
  0.5112098063495267  0.7602402764336702  0.9884250026018293
  0.7429885307471480  0.7520232414040038  0.9989169434992746
  0.9973094985555377  0.9977445530082534  0.2619551877737010
  0.2528408043435846  0.9937427136006676  0.2528731828873916
  0.4980444052012700  0.9942601951258467  0.2492818157821546
  0.7437076850626383  0.0024107134114999  0.2464443853677309
  0.9986401414480639  0.2577391728966987  0.2494658950982114
  0.2642392308058348  0.2484911995321966  0.2477819495676030
  0.5077451365249175  0.2488329934652569  0.2450419907181427
  0.7426329037822725  0.2468058035333272  0.2411057077765904
  0.9799083553701706  0.4923995866399409  0.2623482507053225
  0.2637503334068327  0.4955480385395461  0.2441885352232092
  0.5075650950048640  0.5025488105853171  0.2439370419384019
  0.7685139353344610  0.4956421600057510  0.2414692196005959
  0.9949150960652915  0.7630662726250321  0.2452208369727771
  0.2509905801903329  0.7477624434795516  0.2432337294493934
  0.5071620959698890  0.7392571799088898  0.2535579204775260
  0.7585284356201143  0.7387094590835872  0.2417130334566266
  0.9910210700624731  0.9974625712272172  0.5047472491876874
  0.2388269209801663  0.0007169446835746  0.5001800886681380
  0.5100509423124464  0.9967641382209607  0.5073516465272405
  0.7545163931271688  0.0031469056821081  0.4947553215369140
  0.0107365344483057  0.2517314314916774  0.4926967414583814
  0.2601040427469954  0.2505883497737074  0.4960828579738532
  0.4962124779220005  0.2505043283317931  0.5151433088550235
  0.7473949981279375  0.2497703128378248  0.5116343351498784
  0.0000040556858423  0.4998443846323113  0.4924165906932245
  0.2455767934372730  0.4983606980638342  0.5009837089115763
  0.4890867928685765  0.5063365076075641  0.5052824089478705
  0.7439407322728968  0.5021644724761956  0.4967026103224157
  0.9902115965185274  0.7603111396563946  0.5068038382903737
  0.2608936756342715  0.7332388503758764  0.5066636185739952
  0.5025951184047486  0.7464890062730447  0.5057597021285645
  0.7641160174818395  0.7463138963408014  0.4975727289532230
  0.9977732590268573  0.9943225331707453  0.7573485388260650
  0.2479234354400432  0.0245344196667929  0.7417301207072242
  0.5033143426188289  0.0026654516596949  0.7356152489402135
  0.7399921358384560  0.0128646055496731  0.7480756192319404
  0.9987790660626388  0.2520907718627328  0.7570159601981956
  0.2435248242269310  0.2499040755871533  0.7549571064082770
  0.5047917420281820  0.2561821291657864  0.7428284251717017
  0.7447529762419691  0.2432897840353974  0.7546723473820620
  0.9986615087663111  0.5020600934505381  0.7526528145307267
  0.2483883637531505  0.4887502438861802  0.7417540930214628
  0.5089550169861781  0.5053606528653205  0.7474000808493457
  0.7663876688479263  0.5029418332980811  0.7331876775703421
  0.9880889694755837  0.7491716976499703  0.7530778242794369
  0.2386006586135778  0.7534288465162504  0.7505995294576948
  0.4968765251316967  0.7517151047688131  0.7607505873812173
  0.7514996348857181  0.7497899281411762  0.7501650291371718
  0.0596567026786801  0.0633903251401193  0.0711298808116254
  0.3238460450988754  0.0713773048976591  0.0481993592529903
  0.5611682522159640  0.0668918037766630  0.0669067608901273
  0.8145968182160388  0.0528697068062627  0.0694309303879450
  0.0674186626862721  0.3192967100092972  0.0642090676237359
  0.3221604467012682  0.3103206402552985  0.0511726451216461
  0.5595700412164817  0.3042388896213879  0.0730992980350891
  0.8240623305278518  0.3093322838377759  0.0618649246053025
  0.0727699911476378  0.5579103749053402  0.0651885406973705
  0.3228071960842911  0.5639544252084789  0.0581322179646264
  0.5553844807718704  0.5665859084059264  0.0619723246359740
  0.8120152511846470  0.5779166212881179  0.0522397795616882
  0.0640736148614067  0.8099222077698016  0.0589907080448882
  0.3106667590327845  0.8062365727693575  0.0659186087640578
  0.5654684035835089  0.8145228054985338  0.0589763677604438
  0.8014311856255318  0.8414944089991749  0.0538423927294218
  0.0662415731081651  0.0712094724627406  0.3042908015594676
  0.3091098951266815  0.0488748083970094  0.3235574600900364
  0.5631010691710898  0.0721744302389169  0.2978625721790493
  0.8104265170579836  0.0633830286656192  0.3165755934065331
  0.0661668999428144  0.3113042918841487  0.3119730136168428
  0.2990455270224714  0.3230831420891889  0.3082337157322641
  0.5747439122765883  0.3042220321371545  0.3309957213014982
  0.8093284718443243  0.3151334968940205  0.3142022191493368
  0.0602771560454016  0.5630052465135051  0.3109614295839691
  0.3167316542594421  0.5626555257975809  0.3029415894197456
  0.5809019567643574  0.5501526417805209  0.3108532919454774
  0.8118873728562761  0.5644669216180276  0.3114909609152861
  0.0629066851985911  0.8124602320718495  0.3194432456267222
  0.3013405193834728  0.8118934310658119  0.3163672552315049
  0.5527373394150388  0.8135038784359878  0.3115815489338729
  0.8024626233763712  0.8146922849621205  0.3271857802761886
  0.0591231059897197  0.0802062993886281  0.5594972444433282
  0.3116692194237061  0.0507849438649970  0.5689273982216037
  0.5700245233701438  0.0585111168949979  0.5610354308314882
  0.8228728105249701  0.0673230364443000  0.5639872791423954
  0.0651383132912144  0.2969993485362465  0.5742393278574838
  0.3245009698988994  0.3056983714182877  0.5492052322881023
  0.5631968730075059  0.3042027128499996  0.5666849697709395
  0.8266459153749892  0.3203723421929254  0.5558372347731435
  0.0546748597408211  0.5633843291262224  0.5740432249859211
  0.3077832390386988  0.5597545470801180  0.5571973083939312
  0.5600970872750679  0.5528788222076599  0.5661468785493611
  0.8132924296407325  0.5734618787768113  0.5549121878716434
  0.0533291310924753  0.8183825497181942  0.5613237078903879
  0.3197164052499559  0.8057402722193245  0.5758224445204760
  0.5711877921640749  0.8187678610877782  0.5500701368631837
  0.8157187381323396  0.8121478049026436  0.5600644591871387
  0.0444306811618418  0.0666442757452472  0.8161426475911284
  0.3106684407064719  0.0685894467312451  0.8135877440266697
  0.5641907914285937  0.0595738358167210  0.8072514129333968
  0.8245318257166261  0.0478820240855171  0.8103257080870065
  0.0614772453140162  0.3161247094527155  0.8267138270284988
  0.3243094990102549  0.3054666891709559  0.8187558514526856
  0.5684670120944020  0.3119901419703268  0.7989379996875812
  0.8171876991418330  0.3116459939974661  0.8052765040034018
  0.0668487439028524  0.5559632044627350  0.8253402389529114
  0.3045156046551654  0.5707066483596961  0.8193776118433718
  0.5607317226149533  0.5743975221060893  0.8080096391407920
  0.8195754555692076  0.5547732770925435  0.8135096693772113
  0.0604445680514161  0.8173598430902160  0.8097051884996915
  0.3169679590505226  0.8153791914158006  0.8051736620029857
  0.5589967245599752  0.8217889396432199  0.8140917175925182
  0.7992050425928809  0.8139876002997539  0.8124827779336670
 
  0.00000000E+00  0.00000000E+00  0.00000000E+00
  0.00000000E+00  0.00000000E+00  0.00000000E+00
  0.00000000E+00  0.00000000E+00  0.00000000E+00
  0.00000000E+00  0.00000000E+00  0.00000000E+00
  0.00000000E+00  0.00000000E+00  0.00000000E+00
  0.00000000E+00  0.00000000E+00  0.00000000E+00
  0.00000000E+00  0.00000000E+00  0.00000000E+00
  0.00000000E+00  0.00000000E+00  0.00000000E+00
  0.00000000E+00  0.00000000E+00  0.00000000E+00
  0.00000000E+00  0.00000000E+00  0.00000000E+00
  0.00000000E+00  0.00000000E+00  0.00000000E+00
  0.00000000E+00  0.00000000E+00  0.00000000E+00
  0.00000000E+00  0.00000000E+00  0.00000000E+00
  0.00000000E+00  0.00000000E+00  0.00000000E+00
  0.00000000E+00  0.00000000E+00  0.00000000E+00
  0.00000000E+00  0.00000000E+00  0.00000000E+00
  0.00000000E+00  0.00000000E+00  0.00000000E+00
  0.00000000E+00  0.00000000E+00  0.00000000E+00
  0.00000000E+00  0.00000000E+00  0.00000000E+00
  0.00000000E+00  0.00000000E+00  0.00000000E+00
  0.00000000E+00  0.00000000E+00  0.00000000E+00
  0.00000000E+00  0.00000000E+00  0.00000000E+00
  0.00000000E+00  0.00000000E+00  0.00000000E+00
  0.00000000E+00  0.00000000E+00  0.00000000E+00
  0.00000000E+00  0.00000000E+00  0.00000000E+00
  0.00000000E+00  0.00000000E+00  0.00000000E+00
  0.00000000E+00  0.00000000E+00  0.00000000E+00
  0.00000000E+00  0.00000000E+00  0.00000000E+00
  0.00000000E+00  0.00000000E+00  0.00000000E+00
  0.00000000E+00  0.00000000E+00  0.00000000E+00
  0.00000000E+00  0.00000000E+00  0.00000000E+00
  0.00000000E+00  0.00000000E+00  0.00000000E+00
  0.00000000E+00  0.00000000E+00  0.00000000E+00
  0.00000000E+00  0.00000000E+00  0.00000000E+00
  0.00000000E+00  0.00000000E+00  0.00000000E+00
  0.00000000E+00  0.00000000E+00  0.00000000E+00
  0.00000000E+00  0.00000000E+00  0.00000000E+00
  0.00000000E+00  0.00000000E+00  0.00000000E+00
  0.00000000E+00  0.00000000E+00  0.00000000E+00
  0.00000000E+00  0.00000000E+00  0.00000000E+00
  0.00000000E+00  0.00000000E+00  0.00000000E+00
  0.00000000E+00  0.00000000E+00  0.00000000E+00
  0.00000000E+00  0.00000000E+00  0.00000000E+00
  0.00000000E+00  0.00000000E+00  0.00000000E+00
  0.00000000E+00  0.00000000E+00  0.00000000E+00
  0.00000000E+00  0.00000000E+00  0.00000000E+00
  0.00000000E+00  0.00000000E+00  0.00000000E+00
  0.00000000E+00  0.00000000E+00  0.00000000E+00
  0.00000000E+00  0.00000000E+00  0.00000000E+00
  0.00000000E+00  0.00000000E+00  0.00000000E+00
  0.00000000E+00  0.00000000E+00  0.00000000E+00
  0.00000000E+00  0.00000000E+00  0.00000000E+00
  0.00000000E+00  0.00000000E+00  0.00000000E+00
  0.00000000E+00  0.00000000E+00  0.00000000E+00
  0.00000000E+00  0.00000000E+00  0.00000000E+00
  0.00000000E+00  0.00000000E+00  0.00000000E+00
  0.00000000E+00  0.00000000E+00  0.00000000E+00
  0.00000000E+00  0.00000000E+00  0.00000000E+00
  0.00000000E+00  0.00000000E+00  0.00000000E+00
  0.00000000E+00  0.00000000E+00  0.00000000E+00
  0.00000000E+00  0.00000000E+00  0.00000000E+00
  0.00000000E+00  0.00000000E+00  0.00000000E+00
  0.00000000E+00  0.00000000E+00  0.00000000E+00
  0.00000000E+00  0.00000000E+00  0.00000000E+00
  0.00000000E+00  0.00000000E+00  0.00000000E+00
  0.00000000E+00  0.00000000E+00  0.00000000E+00
  0.00000000E+00  0.00000000E+00  0.00000000E+00
  0.00000000E+00  0.00000000E+00  0.00000000E+00
  0.00000000E+00  0.00000000E+00  0.00000000E+00
  0.00000000E+00  0.00000000E+00  0.00000000E+00
  0.00000000E+00  0.00000000E+00  0.00000000E+00
  0.00000000E+00  0.00000000E+00  0.00000000E+00
  0.00000000E+00  0.00000000E+00  0.00000000E+00
  0.00000000E+00  0.00000000E+00  0.00000000E+00
  0.00000000E+00  0.00000000E+00  0.00000000E+00
  0.00000000E+00  0.00000000E+00  0.00000000E+00
  0.00000000E+00  0.00000000E+00  0.00000000E+00
  0.00000000E+00  0.00000000E+00  0.00000000E+00
  0.00000000E+00  0.00000000E+00  0.00000000E+00
  0.00000000E+00  0.00000000E+00  0.00000000E+00
  0.00000000E+00  0.00000000E+00  0.00000000E+00
  0.00000000E+00  0.00000000E+00  0.00000000E+00
  0.00000000E+00  0.00000000E+00  0.00000000E+00
  0.00000000E+00  0.00000000E+00  0.00000000E+00
  0.00000000E+00  0.00000000E+00  0.00000000E+00
  0.00000000E+00  0.00000000E+00  0.00000000E+00
  0.00000000E+00  0.00000000E+00  0.00000000E+00
  0.00000000E+00  0.00000000E+00  0.00000000E+00
  0.00000000E+00  0.00000000E+00  0.00000000E+00
  0.00000000E+00  0.00000000E+00  0.00000000E+00
  0.00000000E+00  0.00000000E+00  0.00000000E+00
  0.00000000E+00  0.00000000E+00  0.00000000E+00
  0.00000000E+00  0.00000000E+00  0.00000000E+00
  0.00000000E+00  0.00000000E+00  0.00000000E+00
  0.00000000E+00  0.00000000E+00  0.00000000E+00
  0.00000000E+00  0.00000000E+00  0.00000000E+00
  0.00000000E+00  0.00000000E+00  0.00000000E+00
  0.00000000E+00  0.00000000E+00  0.00000000E+00
  0.00000000E+00  0.00000000E+00  0.00000000E+00
  0.00000000E+00  0.00000000E+00  0.00000000E+00
  0.00000000E+00  0.00000000E+00  0.00000000E+00
  0.00000000E+00  0.00000000E+00  0.00000000E+00
  0.00000000E+00  0.00000000E+00  0.00000000E+00
  0.00000000E+00  0.00000000E+00  0.00000000E+00
  0.00000000E+00  0.00000000E+00  0.00000000E+00
  0.00000000E+00  0.00000000E+00  0.00000000E+00
  0.00000000E+00  0.00000000E+00  0.00000000E+00
  0.00000000E+00  0.00000000E+00  0.00000000E+00
  0.00000000E+00  0.00000000E+00  0.00000000E+00
  0.00000000E+00  0.00000000E+00  0.00000000E+00
  0.00000000E+00  0.00000000E+00  0.00000000E+00
  0.00000000E+00  0.00000000E+00  0.00000000E+00
  0.00000000E+00  0.00000000E+00  0.00000000E+00
  0.00000000E+00  0.00000000E+00  0.00000000E+00
  0.00000000E+00  0.00000000E+00  0.00000000E+00
  0.00000000E+00  0.00000000E+00  0.00000000E+00
  0.00000000E+00  0.00000000E+00  0.00000000E+00
  0.00000000E+00  0.00000000E+00  0.00000000E+00
  0.00000000E+00  0.00000000E+00  0.00000000E+00
  0.00000000E+00  0.00000000E+00  0.00000000E+00
  0.00000000E+00  0.00000000E+00  0.00000000E+00
  0.00000000E+00  0.00000000E+00  0.00000000E+00
  0.00000000E+00  0.00000000E+00  0.00000000E+00
  0.00000000E+00  0.00000000E+00  0.00000000E+00
  0.00000000E+00  0.00000000E+00  0.00000000E+00
  0.00000000E+00  0.00000000E+00  0.00000000E+00
  0.00000000E+00  0.00000000E+00  0.00000000E+00
  0.00000000E+00  0.00000000E+00  0.00000000E+00
