kk
 1.0000000000000000
     0.0000000000000000   10.9373336906932952   10.9373336906932952
    10.9373336906932952    0.0000000000000000   10.9373336906932952
    10.9373336906932952   10.9373336906932952    0.0000000000000000
 128
Direct
  0.9967821344870038  0.0044000883518115  0.9972941487076776
  0.2539994009889297  0.9855969045106258  0.0025695691695998
  0.5004725727328870  0.0071490215391239  0.0018427295405380
  0.7464913232694246  0.0088562469469626  0.0093167931777137
  0.0087805837765764  0.2492224841877226  0.0086652169197532
  0.2427431989311220  0.2641950796080959  0.9942148069051576
  0.5042567402032855  0.2526221809447658  0.9992867021102847
  0.7561077171978083  0.2404481391492679  0.0029155861068533
  0.9984733019505984  0.5124095228697886  0.0114965836265160
  0.2626675280063740  0.4932628127631091  0.0001510207169841
  0.5083642448752622  0.5060493719918271  0.9812177344950710
  0.7495706794030598  0.4974148812877162  0.0065712470782028
  0.0017024785948359  0.7538254282976121  0.9962706690149150
  0.2551406103291267  0.7351252181285376  0.9980749287132986
  0.5112098063495265  0.7602402764336714  0.9884250026018327
  0.7429885307471503  0.7520232414040015  0.9989169434992732
  0.9973094985555349  0.9977445530082512  0.2619551877736980
  0.2528408043435822  0.9937427136006661  0.2528731828873934
  0.4980444052012666  0.9942601951258485  0.2492818157821563
  0.7437076850626396  0.0024107134114977  0.2464443853677284
  0.9986401414480629  0.2577391728966998  0.2494658950982082
  0.2642392308058355  0.2484911995321991  0.2477819495676046
  0.5077451365249159  0.2488329934652575  0.2450419907181430
  0.7426329037822736  0.2468058035333261  0.2411057077765877
  0.9799083553701700  0.4923995866399433  0.2623482507053256
  0.2637503334068331  0.4955480385395482  0.2441885352232106
  0.5075650950048628  0.5025488105853151  0.2439370419384034
  0.7685139353344630  0.4956421600057513  0.2414692196005934
  0.9949150960652884  0.7630662726250340  0.2452208369727781
  0.2509905801903339  0.7477624434795526  0.2432337294493901
  0.5071620959698866  0.7392571799088884  0.2535579204775262
  0.7585284356201109  0.7387094590835891  0.2417130334566298
  0.9910210700624723  0.9974625712272169  0.5047472491876851
  0.2388269209801692  0.0007169446835728  0.5001800886681391
  0.5100509423124441  0.9967641382209596  0.5073516465272393
  0.7545163931271720  0.0031469056821061  0.4947553215369157
  0.0107365344483025  0.2517314314916779  0.4926967414583805
  0.2601040427469937  0.2505883497737073  0.4960828579738514
  0.4962124779220015  0.2505043283317950  0.5151433088550225
  0.7473949981279345  0.2497703128378231  0.5116343351498794
  0.0000040556858448  0.4998443846323147  0.4924165906932266
  0.2455767934372727  0.4983606980638331  0.5009837089115735
  0.4890867928685754  0.5063365076075670  0.5052824089478697
  0.7439407322728984  0.5021644724761982  0.4967026103224149
  0.9902115965185269  0.7603111396563926  0.5068038382903702
  0.2608936756342715  0.7332388503758794  0.5066636185739930
  0.5025951184047497  0.7464890062730467  0.5057597021285676
  0.7641160174818421  0.7463138963408038  0.4975727289532218
  0.9977732590268589  0.9943225331707441  0.7573485388260618
  0.2479234354400408  0.0245344196667923  0.7417301207072233
  0.5033143426188316  0.0026654516596969  0.7356152489402163
  0.7399921358384547  0.0128646055496741  0.7480756192319388
  0.9987790660626369  0.2520907718627304  0.7570159601981979
  0.2435248242269280  0.2499040755871553  0.7549571064082735
  0.5047917420281802  0.2561821291657857  0.7428284251717002
  0.7447529762419699  0.2432897840353957  0.7546723473820620
  0.9986615087663094  0.5020600934505370  0.7526528145307271
  0.2483883637531518  0.4887502438861821  0.7417540930214633
  0.5089550169861760  0.5053606528653202  0.7474000808493438
  0.7663876688479291  0.5029418332980806  0.7331876775703425
  0.9880889694755831  0.7491716976499685  0.7530778242794376
  0.2386006586135771  0.7534288465162478  0.7505995294576944
  0.4968765251316971  0.7517151047688139  0.7607505873812146
  0.7514996348857146  0.7497899281411767  0.7501650291371698
  0.0596567026786811  0.0633903251401206  0.0711298808116240
  0.3238460450988724  0.0713773048976581  0.0481993592529915
  0.5611682522159666  0.0668918037766656  0.0669067608901260
  0.8145968182160408  0.0528697068062640  0.0694309303879481
  0.0674186626862754  0.3192967100092988  0.0642090676237377
  0.3221604467012676  0.3103206402552964  0.0511726451216496
  0.5595700412164804  0.3042388896213900  0.0730992980350903
  0.8240623305278529  0.3093322838377726  0.0618649246053041
  0.0727699911476350  0.5579103749053437  0.0651885406973712
  0.3228071960842946  0.5639544252084803  0.0581322179646290
  0.5553844807718733  0.5665859084059284  0.0619723246359769
  0.8120152511846440  0.5779166212881204  0.0522397795616857
  0.0640736148614062  0.8099222077698051  0.0589907080448887
  0.3106667590327870  0.8062365727693576  0.0659186087640572
  0.5654684035835091  0.8145228054985341  0.0589763677604457
  0.8014311856255344  0.8414944089991778  0.0538423927294226
  0.0662415731081663  0.0712094724627421  0.3042908015594686
  0.3091098951266824  0.0488748083970109  0.3235574600900356
  0.5631010691710877  0.0721744302389146  0.2978625721790495
  0.8104265170579810  0.0633830286656204  0.3165755934065334
  0.0661668999428117  0.3113042918841484  0.3119730136168432
  0.2990455270224747  0.3230831420891896  0.3082337157322672
  0.5747439122765911  0.3042220321371512  0.3309957213014998
  0.8093284718443272  0.3151334968940184  0.3142022191493381
  0.0602771560453996  0.5630052465135054  0.3109614295839685
  0.3167316542594446  0.5626555257975813  0.3029415894197462
  0.5809019567643587  0.5501526417805224  0.3108532919454778
  0.8118873728562725  0.5644669216180250  0.3114909609152885
  0.0629066851985893  0.8124602320718477  0.3194432456267222
  0.3013405193834762  0.8118934310658118  0.3163672552315071
  0.5527373394150407  0.8135038784359896  0.3115815489338744
  0.8024626233763709  0.8146922849621190  0.3271857802761861
  0.0591231059897176  0.0802062993886261  0.5594972444433288
  0.3116692194237032  0.0507849438649987  0.5689273982216049
  0.5700245233701469  0.0585111168949984  0.5610354308314872
  0.8228728105249714  0.0673230364442990  0.5639872791423965
  0.0651383132912154  0.2969993485362475  0.5742393278574868
  0.3245009698989016  0.3056983714182860  0.5492052322881036
  0.5631968730075074  0.3042027128500022  0.5666849697709385
  0.8266459153749879  0.3203723421929259  0.5558372347731447
  0.0546748597408181  0.5633843291262189  0.5740432249859219
  0.3077832390387021  0.5597545470801163  0.5571973083939279
  0.5600970872750664  0.5528788222076634  0.5661468785493626
  0.8132924296407348  0.5734618787768146  0.5549121878716433
  0.0533291310924734  0.8183825497181942  0.5613237078903908
  0.3197164052499543  0.8057402722193224  0.5758224445204784
  0.5711877921640748  0.8187678610877754  0.5500701368631814
  0.8157187381323425  0.8121478049026410  0.5600644591871381
  0.0444306811618385  0.0666442757452458  0.8161426475911266
  0.3106684407064753  0.0685894467312418  0.8135877440266677
  0.5641907914285915  0.0595738358167238  0.8072514129333946
  0.8245318257166272  0.0478820240855179  0.8103257080870034
  0.0614772453140155  0.3161247094527184  0.8267138270284973
  0.3243094990102573  0.3054666891709574  0.8187558514526821
  0.5684670120944032  0.3119901419703235  0.7989379996875804
  0.8171876991418329  0.3116459939974677  0.8052765040034051
  0.0668487439028502  0.5559632044627368  0.8253402389529105
  0.3045156046551664  0.5707066483596956  0.8193776118433707
  0.5607317226149500  0.5743975221060867  0.8080096391407895
  0.8195754555692096  0.5547732770925462  0.8135096693772135
  0.0604445680514177  0.8173598430902147  0.8097051884996916
  0.3169679590505211  0.8153791914158001  0.8051736620029859
  0.5589967245599772  0.8217889396432168  0.8140917175925201
  0.7992050425928784  0.8139876002997557  0.8124827779336692
