kk                                      
   1.00000000000000     
     0.0000000000000000   10.9373336906932952   10.9373336906932952
    10.9373336906932952    0.0000000000000000   10.9373336906932952
    10.9373336906932952   10.9373336906932952    0.0000000000000000
   Si
   128
Direct
  0.0014885752933509  0.9912801783480063  0.0063418460335924
  0.2544019477804014  0.9880554814055031  0.9964545349138660
  0.5024732472995339  0.0082802365950201  0.9899064567650910
  0.7503984602103841  0.9982766669384304  0.0066257081778005
  0.0079916298341587  0.2470490925274333  0.9973191131136048
  0.2597090694945408  0.2386761044596213  0.0039839383113147
  0.4959479785655461  0.2406084458850799  0.0087492108545675
  0.7510136505004965  0.2546492760980854  0.9899068274914669
  0.0169965527813503  0.4902558183308443  0.9923252593069591
  0.2551549352600944  0.5033654613612200  0.0035990329165543
  0.4917289874278126  0.4969099262028394  0.0041947251453109
  0.7413720430644162  0.5120176227244997  0.9927859148884295
  0.0085717290789873  0.7557209813183476  0.9934915336129606
  0.2554853128481156  0.7606474773454721  0.0007968757892343
  0.4948561230545252  0.7544538874974123  0.0029614382420533
  0.7476389783267834  0.7375369980447317  0.0010428251501651
  0.9998543794547459  0.9990456585169625  0.2523028023323803
  0.2582977369575374  0.0017550565786237  0.2463685969176979
  0.4962233900726929  0.0032901594348687  0.2473091170551101
  0.7442212814781612  0.9956746484363492  0.2590936937863475
  0.0045178924134675  0.2454747570423166  0.2532542651601801
  0.2598048100715005  0.2364535636011951  0.2491631555493399
  0.4921521073563682  0.2548540653439346  0.2444323159615323
  0.7449634452402378  0.2555937391349019  0.2466135572879935
  0.0098729262841744  0.5045855749564083  0.2403755744561309
  0.2472120081712887  0.5088384694560730  0.2411742580949294
  0.5146346867849161  0.4973310510650961  0.2487104363975732
  0.7476249876370886  0.5100665598913992  0.2419389609406863
  0.9930531114435652  0.7580992368756370  0.2486525847671146
  0.2470809748166616  0.7563139265690495  0.2471882438238779
  0.4962087219812972  0.7535597899262001  0.2544290768080231
  0.7476105370047108  0.7494006556409545  0.2478173687375218
  0.0074513866482917  0.9982203128937570  0.4920589338033210
  0.2462582682725696  0.9954218791714027  0.5046189810820536
  0.5008774341207456  0.0089361676369464  0.4918165214619989
  0.7601598672099499  0.0023426358592076  0.4925262100271581
  0.0016204109127571  0.2512395833544261  0.5009547947660309
  0.2326060101354983  0.2551001133638451  0.4982501857603410
  0.4920322656919112  0.2603619655846146  0.4932389257532535
  0.7509693629797880  0.2524655738385064  0.4972180609380246
  0.0077381673249235  0.5034651396213050  0.4999979619929960
  0.2538535410352623  0.4998424515695419  0.5150206664533457
  0.5028245113792593  0.4982138867511807  0.4963615778994566
  0.7553105314748407  0.5050584657169068  0.5043948458426755
  0.9965728064138446  0.7540359909511523  0.4921533113855503
  0.2586475415329801  0.7521682424134823  0.5021378235016698
  0.5041171671450755  0.7481903761522517  0.4936195875854423
  0.7489153263289410  0.7486007863596598  0.5047493725802639
  0.0025388271051980  0.0022762411106214  0.7402230975089097
  0.2441941925411513  0.0081873926278035  0.7454094462609646
  0.4922606527346147  0.0033281658822588  0.7530993631900103
  0.7480991205474226  0.0029446309420891  0.7507221487859610
  0.0034777651442255  0.2568169214430469  0.7463953787428821
  0.2341608916369751  0.2530464943859343  0.7617641597063880
  0.4911020480489441  0.2598206040810069  0.7605151782971618
  0.7584320765423413  0.2460039233403037  0.7449874137845143
  0.9916121557121826  0.5016980924530117  0.7464406496784619
  0.2469424927924990  0.5112629258180874  0.7444083275653881
  0.5052727007774607  0.4923979205871518  0.7504094167315074
  0.7516600593955616  0.4934864078051575  0.7604891449813707
  0.9999521356369954  0.7474052512437126  0.7534645965353377
  0.2643039285677204  0.7446416920254606  0.7531493812514185
  0.4942064806204129  0.7636873050986495  0.7540865145833280
  0.7496420463403766  0.7460138836973016  0.7562778036827851
  0.0684218913214210  0.0567161135637946  0.0593776750685606
  0.3226266281005721  0.0581127677781836  0.0549440046418610
  0.5674418048068617  0.0612997178142436  0.0693952946003904
  0.8217543701875485  0.0568461642184630  0.0585275763829785
  0.0558194350190035  0.3041491966266037  0.0742182640248501
  0.3116098146403559  0.3217006723924385  0.0556131010355116
  0.5572265831526835  0.3205618246740158  0.0646087962878781
  0.8147332363728097  0.3088372850785817  0.0616734713169222
  0.0719204336771426  0.5511478746151042  0.0683265650265596
  0.3089702843431894  0.5641175594619483  0.0698242347927618
  0.5623753916415879  0.5671498768733301  0.0587862137957984
  0.8143097377534616  0.5584883463710071  0.0635936567786715
  0.0634442398700301  0.8070926400118452  0.0697314529071420
  0.3100265998321277  0.8143564362642053  0.0673508912638923
  0.5675444360983377  0.8170563758197744  0.0556001688809218
  0.8165968722834194  0.8076275343884021  0.0734317796905799
  0.0585389173097113  0.0668618951883673  0.3085290747196439
  0.3142370619827588  0.0533640220920120  0.3117264387319736
  0.5570779344910832  0.0583233974201178  0.3051183452864024
  0.8161464151739466  0.0542611463681908  0.3052061214660995
  0.0625747740953173  0.3145954319362190  0.3147304915194624
  0.2964940905914517  0.3128258650118525  0.3178782095208348
  0.5668987061181880  0.3095376926138371  0.3054083010170601
  0.8155081960547150  0.3108554347539112  0.3146514494984132
  0.0561252607287628  0.5701799170266071  0.3125597246579872
  0.3090065132344861  0.5697655510082953  0.3098183589006709
  0.5634701367980171  0.5734148515718829  0.3098816370044162
  0.8155573636914113  0.5604168304933808  0.3211229709909276
  0.0635266651371467  0.8181666614137271  0.3108544644114346
  0.3215295321414260  0.8061580271353463  0.3088423967665364
  0.5603900094120959  0.8193559591520696  0.3122599182634147
  0.8094894383620570  0.8170013034297199  0.3061540075510365
  0.0617437308822559  0.0663571454451102  0.5550775014858331
  0.3172008126245842  0.0703159723085562  0.5543226190196506
  0.5551003207065008  0.0685319397641422  0.5778743611181270
  0.8087850463944690  0.0624540451052411  0.5614108359280934
  0.0602857772986098  0.3091175358084257  0.5699253860986460
  0.3137390397405824  0.3063482457024023  0.5628466983544911
  0.5631172880699467  0.3013489671068754  0.5668869095286411
  0.8077893514271750  0.3153775116238933  0.5586591833047123
  0.0635676796864431  0.5693263465790395  0.5614863862919108
  0.3158113634759516  0.5765490070391692  0.5450946025916608
  0.5562768500211135  0.5631690409139480  0.5662907800285666
  0.8222741566976595  0.5551649749638159  0.5640599803164363
  0.0652728230805977  0.8128964266520597  0.5714665038477804
  0.3192643369611048  0.8141233811366391  0.5609109037128519
  0.5598507015561296  0.8059774852530310  0.5751596828182386
  0.8101023030429388  0.8180738809348682  0.5649439665556457
  0.0567760054207511  0.0762762439006295  0.8045442256800186
  0.3157894900249829  0.0562493157207058  0.8057497650130543
  0.5705600801779482  0.0659499576048432  0.8129112413107293
  0.8190269132192185  0.0591788828062079  0.8025630075736530
  0.0565389255252029  0.3122805498965846  0.8197153767249503
  0.3029414812834546  0.3079954033701426  0.8215136544528434
  0.5541747395023648  0.3052243269364112  0.8339508089626051
  0.8262914945973421  0.3046015062084209  0.8048082906245781
  0.0620594452766241  0.5611956046972324  0.8116537752484092
  0.3097023486583979  0.5663261151833012  0.8157148700424841
  0.5655502197796167  0.5606129290905457  0.8054486504119325
  0.8035182952253450  0.5737475565175671  0.8062651740829736
  0.0648360083661359  0.8150112661760502  0.8160487466812469
  0.3108821458047970  0.8071957699346299  0.8207003986565340
  0.5510738402077280  0.8146826830509539  0.8221288673338663
  0.8106379343577927  0.8085960997152242  0.8161487266726155
 
  0.00000000E+00  0.00000000E+00  0.00000000E+00
  0.00000000E+00  0.00000000E+00  0.00000000E+00
  0.00000000E+00  0.00000000E+00  0.00000000E+00
  0.00000000E+00  0.00000000E+00  0.00000000E+00
  0.00000000E+00  0.00000000E+00  0.00000000E+00
  0.00000000E+00  0.00000000E+00  0.00000000E+00
  0.00000000E+00  0.00000000E+00  0.00000000E+00
  0.00000000E+00  0.00000000E+00  0.00000000E+00
  0.00000000E+00  0.00000000E+00  0.00000000E+00
  0.00000000E+00  0.00000000E+00  0.00000000E+00
  0.00000000E+00  0.00000000E+00  0.00000000E+00
  0.00000000E+00  0.00000000E+00  0.00000000E+00
  0.00000000E+00  0.00000000E+00  0.00000000E+00
  0.00000000E+00  0.00000000E+00  0.00000000E+00
  0.00000000E+00  0.00000000E+00  0.00000000E+00
  0.00000000E+00  0.00000000E+00  0.00000000E+00
  0.00000000E+00  0.00000000E+00  0.00000000E+00
  0.00000000E+00  0.00000000E+00  0.00000000E+00
  0.00000000E+00  0.00000000E+00  0.00000000E+00
  0.00000000E+00  0.00000000E+00  0.00000000E+00
  0.00000000E+00  0.00000000E+00  0.00000000E+00
  0.00000000E+00  0.00000000E+00  0.00000000E+00
  0.00000000E+00  0.00000000E+00  0.00000000E+00
  0.00000000E+00  0.00000000E+00  0.00000000E+00
  0.00000000E+00  0.00000000E+00  0.00000000E+00
  0.00000000E+00  0.00000000E+00  0.00000000E+00
  0.00000000E+00  0.00000000E+00  0.00000000E+00
  0.00000000E+00  0.00000000E+00  0.00000000E+00
  0.00000000E+00  0.00000000E+00  0.00000000E+00
  0.00000000E+00  0.00000000E+00  0.00000000E+00
  0.00000000E+00  0.00000000E+00  0.00000000E+00
  0.00000000E+00  0.00000000E+00  0.00000000E+00
  0.00000000E+00  0.00000000E+00  0.00000000E+00
  0.00000000E+00  0.00000000E+00  0.00000000E+00
  0.00000000E+00  0.00000000E+00  0.00000000E+00
  0.00000000E+00  0.00000000E+00  0.00000000E+00
  0.00000000E+00  0.00000000E+00  0.00000000E+00
  0.00000000E+00  0.00000000E+00  0.00000000E+00
  0.00000000E+00  0.00000000E+00  0.00000000E+00
  0.00000000E+00  0.00000000E+00  0.00000000E+00
  0.00000000E+00  0.00000000E+00  0.00000000E+00
  0.00000000E+00  0.00000000E+00  0.00000000E+00
  0.00000000E+00  0.00000000E+00  0.00000000E+00
  0.00000000E+00  0.00000000E+00  0.00000000E+00
  0.00000000E+00  0.00000000E+00  0.00000000E+00
  0.00000000E+00  0.00000000E+00  0.00000000E+00
  0.00000000E+00  0.00000000E+00  0.00000000E+00
  0.00000000E+00  0.00000000E+00  0.00000000E+00
  0.00000000E+00  0.00000000E+00  0.00000000E+00
  0.00000000E+00  0.00000000E+00  0.00000000E+00
  0.00000000E+00  0.00000000E+00  0.00000000E+00
  0.00000000E+00  0.00000000E+00  0.00000000E+00
  0.00000000E+00  0.00000000E+00  0.00000000E+00
  0.00000000E+00  0.00000000E+00  0.00000000E+00
  0.00000000E+00  0.00000000E+00  0.00000000E+00
  0.00000000E+00  0.00000000E+00  0.00000000E+00
  0.00000000E+00  0.00000000E+00  0.00000000E+00
  0.00000000E+00  0.00000000E+00  0.00000000E+00
  0.00000000E+00  0.00000000E+00  0.00000000E+00
  0.00000000E+00  0.00000000E+00  0.00000000E+00
  0.00000000E+00  0.00000000E+00  0.00000000E+00
  0.00000000E+00  0.00000000E+00  0.00000000E+00
  0.00000000E+00  0.00000000E+00  0.00000000E+00
  0.00000000E+00  0.00000000E+00  0.00000000E+00
  0.00000000E+00  0.00000000E+00  0.00000000E+00
  0.00000000E+00  0.00000000E+00  0.00000000E+00
  0.00000000E+00  0.00000000E+00  0.00000000E+00
  0.00000000E+00  0.00000000E+00  0.00000000E+00
  0.00000000E+00  0.00000000E+00  0.00000000E+00
  0.00000000E+00  0.00000000E+00  0.00000000E+00
  0.00000000E+00  0.00000000E+00  0.00000000E+00
  0.00000000E+00  0.00000000E+00  0.00000000E+00
  0.00000000E+00  0.00000000E+00  0.00000000E+00
  0.00000000E+00  0.00000000E+00  0.00000000E+00
  0.00000000E+00  0.00000000E+00  0.00000000E+00
  0.00000000E+00  0.00000000E+00  0.00000000E+00
  0.00000000E+00  0.00000000E+00  0.00000000E+00
  0.00000000E+00  0.00000000E+00  0.00000000E+00
  0.00000000E+00  0.00000000E+00  0.00000000E+00
  0.00000000E+00  0.00000000E+00  0.00000000E+00
  0.00000000E+00  0.00000000E+00  0.00000000E+00
  0.00000000E+00  0.00000000E+00  0.00000000E+00
  0.00000000E+00  0.00000000E+00  0.00000000E+00
  0.00000000E+00  0.00000000E+00  0.00000000E+00
  0.00000000E+00  0.00000000E+00  0.00000000E+00
  0.00000000E+00  0.00000000E+00  0.00000000E+00
  0.00000000E+00  0.00000000E+00  0.00000000E+00
  0.00000000E+00  0.00000000E+00  0.00000000E+00
  0.00000000E+00  0.00000000E+00  0.00000000E+00
  0.00000000E+00  0.00000000E+00  0.00000000E+00
  0.00000000E+00  0.00000000E+00  0.00000000E+00
  0.00000000E+00  0.00000000E+00  0.00000000E+00
  0.00000000E+00  0.00000000E+00  0.00000000E+00
  0.00000000E+00  0.00000000E+00  0.00000000E+00
  0.00000000E+00  0.00000000E+00  0.00000000E+00
  0.00000000E+00  0.00000000E+00  0.00000000E+00
  0.00000000E+00  0.00000000E+00  0.00000000E+00
  0.00000000E+00  0.00000000E+00  0.00000000E+00
  0.00000000E+00  0.00000000E+00  0.00000000E+00
  0.00000000E+00  0.00000000E+00  0.00000000E+00
  0.00000000E+00  0.00000000E+00  0.00000000E+00
  0.00000000E+00  0.00000000E+00  0.00000000E+00
  0.00000000E+00  0.00000000E+00  0.00000000E+00
  0.00000000E+00  0.00000000E+00  0.00000000E+00
  0.00000000E+00  0.00000000E+00  0.00000000E+00
  0.00000000E+00  0.00000000E+00  0.00000000E+00
  0.00000000E+00  0.00000000E+00  0.00000000E+00
  0.00000000E+00  0.00000000E+00  0.00000000E+00
  0.00000000E+00  0.00000000E+00  0.00000000E+00
  0.00000000E+00  0.00000000E+00  0.00000000E+00
  0.00000000E+00  0.00000000E+00  0.00000000E+00
  0.00000000E+00  0.00000000E+00  0.00000000E+00
  0.00000000E+00  0.00000000E+00  0.00000000E+00
  0.00000000E+00  0.00000000E+00  0.00000000E+00
  0.00000000E+00  0.00000000E+00  0.00000000E+00
  0.00000000E+00  0.00000000E+00  0.00000000E+00
  0.00000000E+00  0.00000000E+00  0.00000000E+00
  0.00000000E+00  0.00000000E+00  0.00000000E+00
  0.00000000E+00  0.00000000E+00  0.00000000E+00
  0.00000000E+00  0.00000000E+00  0.00000000E+00
  0.00000000E+00  0.00000000E+00  0.00000000E+00
  0.00000000E+00  0.00000000E+00  0.00000000E+00
  0.00000000E+00  0.00000000E+00  0.00000000E+00
  0.00000000E+00  0.00000000E+00  0.00000000E+00
  0.00000000E+00  0.00000000E+00  0.00000000E+00
  0.00000000E+00  0.00000000E+00  0.00000000E+00
  0.00000000E+00  0.00000000E+00  0.00000000E+00
  0.00000000E+00  0.00000000E+00  0.00000000E+00
