kk
 1.0000000000000000
     0.0000000000000000   10.9373336906932952   10.9373336906932952
    10.9373336906932952    0.0000000000000000   10.9373336906932952
    10.9373336906932952   10.9373336906932952    0.0000000000000000
 128
Direct
  0.0014885752933515  0.9912801783480083  0.0063418460335937
  0.2544019477804041  0.9880554814055038  0.9964545349138646
  0.5024732472995322  0.0082802365950213  0.9899064567650918
  0.7503984602103849  0.9982766669384314  0.0066257081777999
  0.0079916298341557  0.2470490925274341  0.9973191131136055
  0.2597090694945374  0.2386761044596228  0.0039839383113166
  0.4959479785655485  0.2406084458850806  0.0087492108545642
  0.7510136505004964  0.2546492760980830  0.9899068274914673
  0.0169965527813515  0.4902558183308450  0.9923252593069576
  0.2551549352600916  0.5033654613612178  0.0035990329165525
  0.4917289874278132  0.4969099262028397  0.0041947251453123
  0.7413720430644191  0.5120176227244967  0.9927859148884273
  0.0085717290789849  0.7557209813183496  0.9934915336129615
  0.2554853128481152  0.7606474773454726  0.0007968757892351
  0.4948561230545276  0.7544538874974095  0.0029614382420514
  0.7476389783267857  0.7375369980447353  0.0010428251501634
  0.9998543794547465  0.9990456585169600  0.2523028023323821
  0.2582977369575372  0.0017550565786256  0.2463685969177013
  0.4962233900726956  0.0032901594348667  0.2473091170551132
  0.7442212814781616  0.9956746484363496  0.2590936937863501
  0.0045178924134707  0.2454747570423139  0.2532542651601805
  0.2598048100715031  0.2364535636011919  0.2491631555493397
  0.4921521073563682  0.2548540653439375  0.2444323159615318
  0.7449634452402347  0.2555937391349045  0.2466135572879948
  0.0098729262841739  0.5045855749564082  0.2403755744561275
  0.2472120081712896  0.5088384694560725  0.2411742580949275
  0.5146346867849129  0.4973310510650974  0.2487104363975736
  0.7476249876370852  0.5100665598913964  0.2419389609406875
  0.9930531114435673  0.7580992368756382  0.2486525847671122
  0.2470809748166650  0.7563139265690489  0.2471882438238782
  0.4962087219812951  0.7535597899262013  0.2544290768080220
  0.7476105370047094  0.7494006556409565  0.2478173687375211
  0.0074513866482921  0.9982203128937555  0.4920589338033206
  0.2462582682725686  0.9954218791714027  0.5046189810820529
  0.5008774341207460  0.0089361676369433  0.4918165214620001
  0.7601598672099514  0.0023426358592042  0.4925262100271585
  0.0016204109127549  0.2512395833544238  0.5009547947660326
  0.2326060101354979  0.2551001133638469  0.4982501857603403
  0.4920322656919099  0.2603619655846152  0.4932389257532506
  0.7509693629797880  0.2524655738385080  0.4972180609380211
  0.0077381673249242  0.5034651396213030  0.4999979619929988
  0.2538535410352588  0.4998424515695414  0.5150206664533477
  0.5028245113792609  0.4982138867511823  0.4963615778994587
  0.7553105314748412  0.5050584657169052  0.5043948458426738
  0.9965728064138477  0.7540359909511497  0.4921533113855490
  0.2586475415329818  0.7521682424134837  0.5021378235016696
  0.5041171671450762  0.7481903761522529  0.4936195875854413
  0.7489153263289412  0.7486007863596619  0.5047493725802652
  0.0025388271051979  0.0022762411106196  0.7402230975089095
  0.2441941925411510  0.0081873926278040  0.7454094462609677
  0.4922606527346139  0.0033281658822582  0.7530993631900114
  0.7480991205474253  0.0029446309420900  0.7507221487859597
  0.0034777651442254  0.2568169214430457  0.7463953787428796
  0.2341608916369778  0.2530464943859366  0.7617641597063846
  0.4911020480489465  0.2598206040810097  0.7605151782971634
  0.7584320765423423  0.2460039233403066  0.7449874137845167
  0.9916121557121811  0.5016980924530102  0.7464406496784640
  0.2469424927924956  0.5112629258180875  0.7444083275653876
  0.5052727007774586  0.4923979205871529  0.7504094167315059
  0.7516600593955586  0.4934864078051558  0.7604891449813677
  0.9999521356369940  0.7474052512437129  0.7534645965353346
  0.2643039285677228  0.7446416920254633  0.7531493812514184
  0.4942064806204106  0.7636873050986476  0.7540865145833268
  0.7496420463403783  0.7460138836973014  0.7562778036827816
  0.0684218913214237  0.0567161135637953  0.0593776750685608
  0.3226266281005741  0.0581127677781863  0.0549440046418616
  0.5674418048068637  0.0612997178142425  0.0693952946003905
  0.8217543701875516  0.0568461642184606  0.0585275763829820
  0.0558194350190028  0.3041491966266013  0.0742182640248506
  0.3116098146403546  0.3217006723924417  0.0556131010355111
  0.5572265831526814  0.3205618246740152  0.0646087962878746
  0.8147332363728081  0.3088372850785818  0.0616734713169256
  0.0719204336771408  0.5511478746151036  0.0683265650265620
  0.3089702843431861  0.5641175594619474  0.0698242347927646
  0.5623753916415885  0.5671498768733306  0.0587862137957990
  0.8143097377534620  0.5584883463710094  0.0635936567786722
  0.0634442398700289  0.8070926400118477  0.0697314529071401
  0.3100265998321285  0.8143564362642072  0.0673508912638923
  0.5675444360983408  0.8170563758197736  0.0556001688809225
  0.8165968722834206  0.8076275343883993  0.0734317796905823
  0.0585389173097112  0.0668618951883663  0.3085290747196418
  0.3142370619827622  0.0533640220920106  0.3117264387319704
  0.5570779344910854  0.0583233974201191  0.3051183452864013
  0.8161464151739449  0.0542611463681937  0.3052061214661007
  0.0625747740953153  0.3145954319362214  0.3147304915194635
  0.2964940905914536  0.3128258650118502  0.3178782095208333
  0.5668987061181915  0.3095376926138341  0.3054083010170571
  0.8155081960547185  0.3108554347539093  0.3146514494984113
  0.0561252607287607  0.5701799170266038  0.3125597246579873
  0.3090065132344892  0.5697655510082946  0.3098183589006729
  0.5634701367980177  0.5734148515718830  0.3098816370044130
  0.8155573636914131  0.5604168304933840  0.3211229709909256
  0.0635266651371462  0.8181666614137265  0.3108544644114336
  0.3215295321414273  0.8061580271353443  0.3088423967665354
  0.5603900094120935  0.8193559591520664  0.3122599182634152
  0.8094894383620581  0.8170013034297182  0.3061540075510331
  0.0617437308822568  0.0663571454451122  0.5550775014858300
  0.3172008126245850  0.0703159723085549  0.5543226190196492
  0.5551003207064998  0.0685319397641457  0.5778743611181302
  0.8087850463944686  0.0624540451052393  0.5614108359280943
  0.0602857772986109  0.3091175358084271  0.5699253860986428
  0.3137390397405851  0.3063482457024027  0.5628466983544917
  0.5631172880699450  0.3013489671068753  0.5668869095286383
  0.8077893514271768  0.3153775116238910  0.5586591833047118
  0.0635676796864434  0.5693263465790372  0.5614863862919108
  0.3158113634759527  0.5765490070391688  0.5450946025916615
  0.5562768500211139  0.5631690409139447  0.5662907800285630
  0.8222741566976592  0.5551649749638135  0.5640599803164388
  0.0652728230805967  0.8128964266520582  0.5714665038477829
  0.3192643369611048  0.8141233811366413  0.5609109037128495
  0.5598507015561328  0.8059774852530304  0.5751596828182359
  0.8101023030429402  0.8180738809348688  0.5649439665556474
  0.0567760054207481  0.0762762439006320  0.8045442256800179
  0.3157894900249860  0.0562493157207090  0.8057497650130570
  0.5705600801779472  0.0659499576048421  0.8129112413107302
  0.8190269132192205  0.0591788828062047  0.8025630075736551
  0.0565389255252003  0.3122805498965853  0.8197153767249494
  0.3029414812834513  0.3079954033701392  0.8215136544528424
  0.5541747395023672  0.3052243269364088  0.8339508089626048
  0.8262914945973454  0.3046015062084237  0.8048082906245785
  0.0620594452766211  0.5611956046972290  0.8116537752484106
  0.3097023486584004  0.5663261151833024  0.8157148700424840
  0.5655502197796135  0.5606129290905436  0.8054486504119341
  0.8035182952253431  0.5737475565175651  0.8062651740829765
  0.0648360083661327  0.8150112661760508  0.8160487466812478
  0.3108821458047983  0.8071957699346275  0.8207003986565323
  0.5510738402077267  0.8146826830509536  0.8221288673338671
  0.8106379343577936  0.8085960997152241  0.8161487266726188
