kk                                      
   1.00000000000000     
     0.0000000000000000   10.9373336906932952   10.9373336906932952
    10.9373336906932952    0.0000000000000000   10.9373336906932952
    10.9373336906932952   10.9373336906932952    0.0000000000000000
   Si
   128
Direct
  0.9954820479324340  0.0022122053837776  0.0074896992562046
  0.2419835157264387  0.9976313647035226  0.0020819783985502
  0.4956134404332602  0.0075265150864254  0.9904782591843002
  0.7503786145131812  0.9945400819107135  0.9964518710396746
  0.9884587298984826  0.2529807985917003  0.0044211755636852
  0.2494761069507021  0.2464711647938671  0.0079703683123711
  0.4983786638590146  0.2459512019631802  0.9961017417835478
  0.7468025117044732  0.2534916965222607  0.9951283554821018
  0.9995595387245473  0.5063575021647253  0.9934923713600057
  0.2494286571723805  0.5016833263560159  0.9997987501942234
  0.5026062342865529  0.5109864340028096  0.9974479660171269
  0.7337430121941253  0.5002006581109413  0.0150436426998439
  0.9973539827988063  0.7516731358615800  0.9960689361707082
  0.2599782057957469  0.7518711663780522  0.0009375459422074
  0.5055702849847421  0.7424652971932630  0.0005535356831459
  0.7370249284803947  0.7559218291404406  0.0091376513130328
  0.0024410390927940  0.9989924678006545  0.2496326714510246
  0.2467002290737241  0.0025627510614612  0.2477520335817047
  0.4980247182104520  0.0085987926091562  0.2573117426874063
  0.7437293666614124  0.0099067766538710  0.2570803494997378
  0.0120740930885219  0.2419848376158740  0.2405380365027341
  0.2578629520253131  0.2478127848354887  0.2445096559843307
  0.5015673264722693  0.2481353458152569  0.2599097000929760
  0.7538268835058588  0.2399233426396421  0.2540464044533124
  0.0011045100261029  0.5053484326314788  0.2533164978784299
  0.2505835356328561  0.4977923815014762  0.2480316389085573
  0.4921345522271068  0.4975713086546421  0.2480054621086367
  0.7531457745491608  0.4897365338194746  0.2622546695121812
  0.9989998428337969  0.7540700583514521  0.2452655411936604
  0.2453115059579574  0.7589905939260362  0.2446837975083227
  0.4950404249842322  0.7543529867432284  0.2575027916310972
  0.7558188692847665  0.7485722604881175  0.2361212815662910
  0.9918750696155811  0.9991506417174350  0.5060688063977636
  0.2514955271923967  0.9944430095930414  0.5049860904312951
  0.5029227941667145  0.9953790161333487  0.5007392023084023
  0.7521246661588705  0.9912544789258249  0.4983405404522259
  0.9935216621976437  0.2692107640399399  0.4969934865428627
  0.2506355306473012  0.2521988889548012  0.4896979378121245
  0.5064040782725101  0.2576485303961320  0.4969446720027406
  0.7535215174154999  0.2483273091480953  0.5026708137673239
  0.9923658247334970  0.4988927175457647  0.5069787066394085
  0.2476724335467040  0.5083528473237138  0.5003632398475375
  0.4913436758407741  0.5083965288372170  0.4930840612503573
  0.7480517741020876  0.5187471378565363  0.4928539919885111
  0.9921733321530795  0.7551470635800257  0.4966475342237970
  0.2469856154824228  0.7477254302746772  0.4919206866471484
  0.4958890579013442  0.7486972671282288  0.5087578144016049
  0.7533117739447093  0.7453889653144969  0.5038635304708521
  0.9925255873615768  0.9977250296087874  0.7615639154758469
  0.2472440301748406  0.9951188711818091  0.7580908945925131
  0.4869739906965904  0.0106390529336551  0.7615830097200131
  0.7548042704702240  0.0016584663096779  0.7456488054502088
  0.9961935856370161  0.2579173881675487  0.7512404229473546
  0.2464989090644494  0.2522518754725809  0.7543225236620259
  0.4880772480521927  0.2614233758570137  0.7562378821026954
  0.7491809041119240  0.2559584229608873  0.7370642430731920
  0.0043434099166006  0.4951614972240108  0.7538623297092357
  0.2603315496984919  0.5018414776864759  0.7444040174512878
  0.5013074125111743  0.5105290605024138  0.7403819758530688
  0.7604628009933236  0.5031835738239891  0.7335918516400213
  0.0102325376832155  0.7492333054258751  0.7429895180424637
  0.2495357599539076  0.7436015662181532  0.7505025771983043
  0.4898888835753468  0.7532803997760453  0.7503445224196028
  0.7533187670397297  0.7499586818233936  0.7410306803403586
  0.0583585646206402  0.0614128446663713  0.0698355234646471
  0.3138969906940687  0.0539424608140280  0.0644215233878001
  0.5524415768904234  0.0605627610887964  0.0603449610848799
  0.8144596254041971  0.0634294414093333  0.0644332797671652
  0.0707733094051832  0.2968010595577795  0.0679568603594873
  0.3198050344611900  0.3129838149781463  0.0481411755071264
  0.5689281381682889  0.3131411017368890  0.0605861165541413
  0.7932220718099572  0.3111226042316275  0.0654107302178204
  0.0722893333692980  0.5692916858031438  0.0616916203128568
  0.3118093323468898  0.5656963592093689  0.0645420115732875
  0.5643653765038152  0.5535519733302223  0.0622508787002758
  0.8109391725934358  0.5591013730258112  0.0795278078744488
  0.0562703255831778  0.8105192151140841  0.0698768809599457
  0.3132158905715059  0.8040742274221415  0.0630460987098260
  0.5574100557648407  0.8124609408928052  0.0614989908456280
  0.8198879900814902  0.8156832346278193  0.0447648408178765
  0.0680478743882631  0.0616900399515785  0.3160455208370081
  0.3178879607221674  0.0571744362270508  0.3097897751871770
  0.5656067774638345  0.0567234837490460  0.3152428485115379
  0.8193458162426381  0.0673567070392025  0.3166833480796285
  0.0706542896448710  0.2937118537168359  0.3167278416622992
  0.3106984560764161  0.3194469147813805  0.3097448168112749
  0.5547398268244450  0.3249183585399393  0.3098877820179027
  0.8086932984579960  0.3161747203094123  0.3184059993394115
  0.0649856170172072  0.5607984896105833  0.3083897450349653
  0.3187765625874874  0.5536939619153287  0.3255778049525873
  0.5613623647075769  0.5645301862291205  0.3026032699143997
  0.8123510119429724  0.5690891563252478  0.3068820049204319
  0.0469098769449019  0.8155207088786369  0.3135098538540788
  0.3087981277295242  0.8165518642214309  0.3076650524541265
  0.5573280167868333  0.8141793093006413  0.3082827014374985
  0.8119457340822436  0.8105237560551899  0.3149951805567142
  0.0644356068787317  0.0632669331659628  0.5547742885423617
  0.3197661725882242  0.0710430820244881  0.5443171978769215
  0.5625968096430896  0.0550006632885101  0.5628217783385665
  0.8002310614302601  0.0692614534198981  0.5663880212101517
  0.0587044928145843  0.3132081675618821  0.5747020118821951
  0.3176962011799631  0.3049320553269155  0.5625773685977862
  0.5684545223439272  0.3030080888459352  0.5574778403168850
  0.8133650722184527  0.3176198304904645  0.5575936917607862
  0.0741070340901473  0.5725369291848779  0.5558105187133293
  0.3054177097381157  0.5700054875566209  0.5606535591529962
  0.5553396430670219  0.5713411773845820  0.5590552879066308
  0.8156111134181216  0.5685169899428573  0.5564033107835513
  0.0601951298072763  0.8083474296604507  0.5674596522968116
  0.3154811253527114  0.8067621172356709  0.5661407835350474
  0.5689317163331964  0.8231436955657259  0.5394177903756088
  0.8128301798726412  0.8076207413775052  0.5651455031171366
  0.0572931589167780  0.0671242200514826  0.8063720230934592
  0.3145142388651223  0.0681317922946150  0.8118888714902184
  0.5682280046387191  0.0631221742960903  0.8025306813016826
  0.8089491470937347  0.0702010699966138  0.8047304881686657
  0.0630123212925611  0.3144636584996121  0.8135185416123534
  0.3165773629851429  0.3291964753997121  0.8022445767573885
  0.5651590461315479  0.3087195748228453  0.8066829010122518
  0.8046574472328345  0.3040619065646766  0.8185161227313031
  0.0757223652323376  0.5582573118452530  0.8173238687824380
  0.3105599543709161  0.5615047803877857  0.8209063061674513
  0.5742442373395349  0.5534380818285598  0.8001098803188427
  0.8121671166109437  0.5545914239689793  0.8180370533955923
  0.0610396386964212  0.8140055128501373  0.8086464461619016
  0.3035687144428252  0.8106036034206952  0.8237085570710789
  0.5468915509544559  0.8084258478678805  0.8209888016271805
  0.8068518103376405  0.8034962097116534  0.8190437791398750
 
  0.00000000E+00  0.00000000E+00  0.00000000E+00
  0.00000000E+00  0.00000000E+00  0.00000000E+00
  0.00000000E+00  0.00000000E+00  0.00000000E+00
  0.00000000E+00  0.00000000E+00  0.00000000E+00
  0.00000000E+00  0.00000000E+00  0.00000000E+00
  0.00000000E+00  0.00000000E+00  0.00000000E+00
  0.00000000E+00  0.00000000E+00  0.00000000E+00
  0.00000000E+00  0.00000000E+00  0.00000000E+00
  0.00000000E+00  0.00000000E+00  0.00000000E+00
  0.00000000E+00  0.00000000E+00  0.00000000E+00
  0.00000000E+00  0.00000000E+00  0.00000000E+00
  0.00000000E+00  0.00000000E+00  0.00000000E+00
  0.00000000E+00  0.00000000E+00  0.00000000E+00
  0.00000000E+00  0.00000000E+00  0.00000000E+00
  0.00000000E+00  0.00000000E+00  0.00000000E+00
  0.00000000E+00  0.00000000E+00  0.00000000E+00
  0.00000000E+00  0.00000000E+00  0.00000000E+00
  0.00000000E+00  0.00000000E+00  0.00000000E+00
  0.00000000E+00  0.00000000E+00  0.00000000E+00
  0.00000000E+00  0.00000000E+00  0.00000000E+00
  0.00000000E+00  0.00000000E+00  0.00000000E+00
  0.00000000E+00  0.00000000E+00  0.00000000E+00
  0.00000000E+00  0.00000000E+00  0.00000000E+00
  0.00000000E+00  0.00000000E+00  0.00000000E+00
  0.00000000E+00  0.00000000E+00  0.00000000E+00
  0.00000000E+00  0.00000000E+00  0.00000000E+00
  0.00000000E+00  0.00000000E+00  0.00000000E+00
  0.00000000E+00  0.00000000E+00  0.00000000E+00
  0.00000000E+00  0.00000000E+00  0.00000000E+00
  0.00000000E+00  0.00000000E+00  0.00000000E+00
  0.00000000E+00  0.00000000E+00  0.00000000E+00
  0.00000000E+00  0.00000000E+00  0.00000000E+00
  0.00000000E+00  0.00000000E+00  0.00000000E+00
  0.00000000E+00  0.00000000E+00  0.00000000E+00
  0.00000000E+00  0.00000000E+00  0.00000000E+00
  0.00000000E+00  0.00000000E+00  0.00000000E+00
  0.00000000E+00  0.00000000E+00  0.00000000E+00
  0.00000000E+00  0.00000000E+00  0.00000000E+00
  0.00000000E+00  0.00000000E+00  0.00000000E+00
  0.00000000E+00  0.00000000E+00  0.00000000E+00
  0.00000000E+00  0.00000000E+00  0.00000000E+00
  0.00000000E+00  0.00000000E+00  0.00000000E+00
  0.00000000E+00  0.00000000E+00  0.00000000E+00
  0.00000000E+00  0.00000000E+00  0.00000000E+00
  0.00000000E+00  0.00000000E+00  0.00000000E+00
  0.00000000E+00  0.00000000E+00  0.00000000E+00
  0.00000000E+00  0.00000000E+00  0.00000000E+00
  0.00000000E+00  0.00000000E+00  0.00000000E+00
  0.00000000E+00  0.00000000E+00  0.00000000E+00
  0.00000000E+00  0.00000000E+00  0.00000000E+00
  0.00000000E+00  0.00000000E+00  0.00000000E+00
  0.00000000E+00  0.00000000E+00  0.00000000E+00
  0.00000000E+00  0.00000000E+00  0.00000000E+00
  0.00000000E+00  0.00000000E+00  0.00000000E+00
  0.00000000E+00  0.00000000E+00  0.00000000E+00
  0.00000000E+00  0.00000000E+00  0.00000000E+00
  0.00000000E+00  0.00000000E+00  0.00000000E+00
  0.00000000E+00  0.00000000E+00  0.00000000E+00
  0.00000000E+00  0.00000000E+00  0.00000000E+00
  0.00000000E+00  0.00000000E+00  0.00000000E+00
  0.00000000E+00  0.00000000E+00  0.00000000E+00
  0.00000000E+00  0.00000000E+00  0.00000000E+00
  0.00000000E+00  0.00000000E+00  0.00000000E+00
  0.00000000E+00  0.00000000E+00  0.00000000E+00
  0.00000000E+00  0.00000000E+00  0.00000000E+00
  0.00000000E+00  0.00000000E+00  0.00000000E+00
  0.00000000E+00  0.00000000E+00  0.00000000E+00
  0.00000000E+00  0.00000000E+00  0.00000000E+00
  0.00000000E+00  0.00000000E+00  0.00000000E+00
  0.00000000E+00  0.00000000E+00  0.00000000E+00
  0.00000000E+00  0.00000000E+00  0.00000000E+00
  0.00000000E+00  0.00000000E+00  0.00000000E+00
  0.00000000E+00  0.00000000E+00  0.00000000E+00
  0.00000000E+00  0.00000000E+00  0.00000000E+00
  0.00000000E+00  0.00000000E+00  0.00000000E+00
  0.00000000E+00  0.00000000E+00  0.00000000E+00
  0.00000000E+00  0.00000000E+00  0.00000000E+00
  0.00000000E+00  0.00000000E+00  0.00000000E+00
  0.00000000E+00  0.00000000E+00  0.00000000E+00
  0.00000000E+00  0.00000000E+00  0.00000000E+00
  0.00000000E+00  0.00000000E+00  0.00000000E+00
  0.00000000E+00  0.00000000E+00  0.00000000E+00
  0.00000000E+00  0.00000000E+00  0.00000000E+00
  0.00000000E+00  0.00000000E+00  0.00000000E+00
  0.00000000E+00  0.00000000E+00  0.00000000E+00
  0.00000000E+00  0.00000000E+00  0.00000000E+00
  0.00000000E+00  0.00000000E+00  0.00000000E+00
  0.00000000E+00  0.00000000E+00  0.00000000E+00
  0.00000000E+00  0.00000000E+00  0.00000000E+00
  0.00000000E+00  0.00000000E+00  0.00000000E+00
  0.00000000E+00  0.00000000E+00  0.00000000E+00
  0.00000000E+00  0.00000000E+00  0.00000000E+00
  0.00000000E+00  0.00000000E+00  0.00000000E+00
  0.00000000E+00  0.00000000E+00  0.00000000E+00
  0.00000000E+00  0.00000000E+00  0.00000000E+00
  0.00000000E+00  0.00000000E+00  0.00000000E+00
  0.00000000E+00  0.00000000E+00  0.00000000E+00
  0.00000000E+00  0.00000000E+00  0.00000000E+00
  0.00000000E+00  0.00000000E+00  0.00000000E+00
  0.00000000E+00  0.00000000E+00  0.00000000E+00
  0.00000000E+00  0.00000000E+00  0.00000000E+00
  0.00000000E+00  0.00000000E+00  0.00000000E+00
  0.00000000E+00  0.00000000E+00  0.00000000E+00
  0.00000000E+00  0.00000000E+00  0.00000000E+00
  0.00000000E+00  0.00000000E+00  0.00000000E+00
  0.00000000E+00  0.00000000E+00  0.00000000E+00
  0.00000000E+00  0.00000000E+00  0.00000000E+00
  0.00000000E+00  0.00000000E+00  0.00000000E+00
  0.00000000E+00  0.00000000E+00  0.00000000E+00
  0.00000000E+00  0.00000000E+00  0.00000000E+00
  0.00000000E+00  0.00000000E+00  0.00000000E+00
  0.00000000E+00  0.00000000E+00  0.00000000E+00
  0.00000000E+00  0.00000000E+00  0.00000000E+00
  0.00000000E+00  0.00000000E+00  0.00000000E+00
  0.00000000E+00  0.00000000E+00  0.00000000E+00
  0.00000000E+00  0.00000000E+00  0.00000000E+00
  0.00000000E+00  0.00000000E+00  0.00000000E+00
  0.00000000E+00  0.00000000E+00  0.00000000E+00
  0.00000000E+00  0.00000000E+00  0.00000000E+00
  0.00000000E+00  0.00000000E+00  0.00000000E+00
  0.00000000E+00  0.00000000E+00  0.00000000E+00
  0.00000000E+00  0.00000000E+00  0.00000000E+00
  0.00000000E+00  0.00000000E+00  0.00000000E+00
  0.00000000E+00  0.00000000E+00  0.00000000E+00
  0.00000000E+00  0.00000000E+00  0.00000000E+00
  0.00000000E+00  0.00000000E+00  0.00000000E+00
  0.00000000E+00  0.00000000E+00  0.00000000E+00
  0.00000000E+00  0.00000000E+00  0.00000000E+00
