kk
 1.0000000000000000
     0.0000000000000000   10.9373336906932952   10.9373336906932952
    10.9373336906932952    0.0000000000000000   10.9373336906932952
    10.9373336906932952   10.9373336906932952    0.0000000000000000
 128
Direct
  0.9954820479324346  0.0022122053837751  0.0074896992562032
  0.2419835157264378  0.9976313647035219  0.0020819783985515
  0.4956134404332577  0.0075265150864240  0.9904782591843001
  0.7503786145131814  0.9945400819107144  0.9964518710396713
  0.9884587298984840  0.2529807985916987  0.0044211755636870
  0.2494761069507053  0.2464711647938689  0.0079703683123704
  0.4983786638590122  0.2459512019631820  0.9961017417835482
  0.7468025117044723  0.2534916965222623  0.9951283554821049
  0.9995595387245454  0.5063575021647269  0.9934923713600056
  0.2494286571723775  0.5016833263560178  0.9997987501942202
  0.5026062342865550  0.5109864340028126  0.9974479660171257
  0.7337430121941283  0.5002006581109419  0.0150436426998424
  0.9973539827988063  0.7516731358615777  0.9960689361707048
  0.2599782057957485  0.7518711663780548  0.0009375459422087
  0.5055702849847395  0.7424652971932659  0.0005535356831428
  0.7370249284803975  0.7559218291404389  0.0091376513130328
  0.0024410390927956  0.9989924678006550  0.2496326714510220
  0.2467002290737248  0.0025627510614612  0.2477520335817072
  0.4980247182104498  0.0085987926091555  0.2573117426874037
  0.7437293666614155  0.0099067766538716  0.2570803494997386
  0.0120740930885214  0.2419848376158769  0.2405380365027319
  0.2578629520253160  0.2478127848354909  0.2445096559843310
  0.5015673264722660  0.2481353458152587  0.2599097000929761
  0.7538268835058580  0.2399233426396430  0.2540464044533126
  0.0011045100261014  0.5053484326314773  0.2533164978784274
  0.2505835356328535  0.4977923815014787  0.2480316389085594
  0.4921345522271041  0.4975713086546404  0.2480054621086382
  0.7531457745491618  0.4897365338194724  0.2622546695121818
  0.9989998428337982  0.7540700583514489  0.2452655411936620
  0.2453115059579591  0.7589905939260363  0.2446837975083259
  0.4950404249842341  0.7543529867432264  0.2575027916310945
  0.7558188692847694  0.7485722604881199  0.2361212815662883
  0.9918750696155822  0.9991506417174382  0.5060688063977641
  0.2514955271923943  0.9944430095930438  0.5049860904312936
  0.5029227941667170  0.9953790161333460  0.5007392023084047
  0.7521246661588722  0.9912544789258235  0.4983405404522233
  0.9935216621976440  0.2692107640399423  0.4969934865428623
  0.2506355306473000  0.2521988889548033  0.4896979378121268
  0.5064040782725117  0.2576485303961335  0.4969446720027390
  0.7535215174155012  0.2483273091480934  0.5026708137673230
  0.9923658247334936  0.4988927175457667  0.5069787066394106
  0.2476724335467019  0.5083528473237109  0.5003632398475381
  0.4913436758407714  0.5083965288372191  0.4930840612503562
  0.7480517741020896  0.5187471378565368  0.4928539919885142
  0.9921733321530798  0.7551470635800260  0.4966475342237944
  0.2469856154824245  0.7477254302746791  0.4919206866471483
  0.4958890579013447  0.7486972671282294  0.5087578144016042
  0.7533117739447096  0.7453889653144991  0.5038635304708519
  0.9925255873615799  0.9977250296087838  0.7615639154758472
  0.2472440301748403  0.9951188711818063  0.7580908945925116
  0.4869739906965870  0.0106390529336531  0.7615830097200113
  0.7548042704702213  0.0016584663096805  0.7456488054502074
  0.9961935856370134  0.2579173881675518  0.7512404229473513
  0.2464989090644498  0.2522518754725812  0.7543225236620248
  0.4880772480521938  0.2614233758570103  0.7562378821026964
  0.7491809041119243  0.2559584229608908  0.7370642430731928
  0.0043434099166018  0.4951614972240119  0.7538623297092333
  0.2603315496984940  0.5018414776864766  0.7444040174512843
  0.5013074125111758  0.5105290605024124  0.7403819758530709
  0.7604628009933254  0.5031835738239927  0.7335918516400237
  0.0102325376832182  0.7492333054258730  0.7429895180424643
  0.2495357599539047  0.7436015662181553  0.7505025771983038
  0.4898888835753445  0.7532803997760474  0.7503445224196037
  0.7533187670397283  0.7499586818233966  0.7410306803403590
  0.0583585646206416  0.0614128446663710  0.0698355234646489
  0.3138969906940681  0.0539424608140305  0.0644215233877990
  0.5524415768904247  0.0605627610887976  0.0603449610848825
  0.8144596254041977  0.0634294414093306  0.0644332797671654
  0.0707733094051832  0.2968010595577760  0.0679568603594901
  0.3198050344611889  0.3129838149781438  0.0481411755071245
  0.5689281381682901  0.3131411017368872  0.0605861165541405
  0.7932220718099584  0.3111226042316252  0.0654107302178220
  0.0722893333692979  0.5692916858031430  0.0616916203128592
  0.3118093323468925  0.5656963592093691  0.0645420115732896
  0.5643653765038156  0.5535519733302257  0.0622508787002772
  0.8109391725934351  0.5591013730258148  0.0795278078744519
  0.0562703255831785  0.8105192151140851  0.0698768809599453
  0.3132158905715054  0.8040742274221434  0.0630460987098266
  0.5574100557648386  0.8124609408928037  0.0614989908456307
  0.8198879900814867  0.8156832346278212  0.0447648408178759
  0.0680478743882655  0.0616900399515788  0.3160455208370114
  0.3178879607221679  0.0571744362270485  0.3097897751871780
  0.5656067774638313  0.0567234837490469  0.3152428485115382
  0.8193458162426406  0.0673567070392007  0.3166833480796272
  0.0706542896448732  0.2937118537168384  0.3167278416622972
  0.3106984560764190  0.3194469147813822  0.3097448168112744
  0.5547398268244477  0.3249183585399391  0.3098877820179056
  0.8086932984579935  0.3161747203094133  0.3184059993394086
  0.0649856170172088  0.5607984896105851  0.3083897450349622
  0.3187765625874904  0.5536939619153299  0.3255778049525876
  0.5613623647075743  0.5645301862291234  0.3026032699143982
  0.8123510119429729  0.5690891563252501  0.3068820049204285
  0.0469098769449038  0.8155207088786334  0.3135098538540787
  0.3087981277295258  0.8165518642214284  0.3076650524541246
  0.5573280167868300  0.8141793093006388  0.3082827014374983
  0.8119457340822406  0.8105237560551897  0.3149951805567117
  0.0644356068787298  0.0632669331659649  0.5547742885423614
  0.3197661725882258  0.0710430820244868  0.5443171978769246
  0.5625968096430889  0.0550006632885076  0.5628217783385675
  0.8002310614302626  0.0692614534198990  0.5663880212101493
  0.0587044928145841  0.3132081675618795  0.5747020118821926
  0.3176962011799609  0.3049320553269154  0.5625773685977860
  0.5684545223439239  0.3030080888459323  0.5574778403168815
  0.8133650722184509  0.3176198304904662  0.5575936917607840
  0.0741070340901486  0.5725369291848794  0.5558105187133322
  0.3054177097381183  0.5700054875566234  0.5606535591529931
  0.5553396430670230  0.5713411773845798  0.5590552879066339
  0.8156111134181188  0.5685169899428586  0.5564033107835500
  0.0601951298072769  0.8083474296604537  0.5674596522968123
  0.3154811253527129  0.8067621172356689  0.5661407835350478
  0.5689317163331985  0.8231436955657225  0.5394177903756061
  0.8128301798726427  0.8076207413775031  0.5651455031171340
  0.0572931589167755  0.0671242200514820  0.8063720230934628
  0.3145142388651202  0.0681317922946162  0.8118888714902167
  0.5682280046387159  0.0631221742960895  0.8025306813016856
  0.8089491470937376  0.0702010699966172  0.8047304881686622
  0.0630123212925634  0.3144636584996146  0.8135185416123546
  0.3165773629851439  0.3291964753997155  0.8022445767573907
  0.5651590461315508  0.3087195748228422  0.8066829010122529
  0.8046574472328343  0.3040619065646797  0.8185161227313047
  0.0757223652323342  0.5582573118452515  0.8173238687824362
  0.3105599543709153  0.5615047803877840  0.8209063061674542
  0.5742442373395374  0.5534380818285569  0.8001098803188410
  0.8121671166109466  0.5545914239689766  0.8180370533955952
  0.0610396386964184  0.8140055128501352  0.8086464461619004
  0.3035687144428274  0.8106036034206917  0.8237085570710819
  0.5468915509544594  0.8084258478678809  0.8209888016271816
  0.8068518103376382  0.8034962097116557  0.8190437791398725
