kk                                      
   1.00000000000000     
     0.0000000000000000   10.9373336906932952   10.9373336906932952
    10.9373336906932952    0.0000000000000000   10.9373336906932952
    10.9373336906932952   10.9373336906932952    0.0000000000000000
   Si
   128
Direct
  0.0064504263851930  0.9997267584137859  0.0002050448553206
  0.2566396601882275  0.9994294762295510  0.9894764991440752
  0.5040018618189066  0.9965275339511024  0.9976456534726736
  0.7463382291983294  0.0138378146645408  0.9861188922127226
  0.9970143225568933  0.2424915872560263  0.9968986741913426
  0.2419861733220543  0.2436323553450919  0.0084392465296403
  0.4995189911228124  0.2426264308348181  0.9888242146535902
  0.7632506594720567  0.2407056907012830  0.9951976775169129
  0.0056729300981857  0.5023404534479070  0.9851925520442677
  0.2510769182150554  0.4999505409216596  0.9981922440659403
  0.4861775397319548  0.5054646298300369  0.9969199049743906
  0.7542843686832441  0.4918605694729195  0.0060603490334046
  0.0023954115836062  0.7505305810180047  0.9952365773527632
  0.2468318601902482  0.7489723560521142  0.0009457882560753
  0.4968921478007644  0.7522924888820413  0.0029397445007504
  0.7497216409816474  0.7502049691215262  0.9961755167755086
  0.0035284526822181  0.9951683092805368  0.2467628951295211
  0.2594238018918702  0.0048864133385109  0.2478320588694416
  0.5024994892138892  0.0047060796604583  0.2413652206137868
  0.7583902249240495  0.9993444681909267  0.2498606802516719
  0.9973161694883572  0.2434581259114523  0.2463602192980403
  0.2570233962970434  0.2449414932435729  0.2493483377993329
  0.5011408333092220  0.2579534386655524  0.2449403537183841
  0.7530002991397708  0.2548904918010280  0.2511705113028597
  0.0106905610058092  0.5054056553656849  0.2468044293374803
  0.2448691551495585  0.4937581054625184  0.2560718864420224
  0.4992495625243265  0.5026633842893489  0.2570367070567841
  0.7421116020660818  0.5038132109110336  0.2454701257813880
  0.0050930027680707  0.7525807363719679  0.2437662225785360
  0.2468327219278805  0.7514800196644345  0.2486900563470300
  0.5041892309054390  0.7534622115670473  0.2467359139385437
  0.7542172218303307  0.7438306718033445  0.2526611305912638
  0.0038195104034671  0.9966268564911829  0.5001441187522175
  0.2515701388809859  0.9943428232547049  0.4985379544780741
  0.4860651405634968  0.0072378460398994  0.5000585775113890
  0.7479987281746290  0.0109958381477142  0.4895899692688346
  0.0007645332315391  0.2516709500351197  0.4890023911838099
  0.2445238403222874  0.2540867967930183  0.5016942171027736
  0.4976480387776405  0.2538239718670923  0.5041202561709781
  0.7491298248598710  0.2539817900948194  0.4980035065942232
  0.0020242525892655  0.5061439012957507  0.4986942599846387
  0.2447721474451683  0.5058662231587050  0.4960775601381613
  0.5001589693843513  0.4947703482582924  0.4900141625006640
  0.7540850835224333  0.4941143930650682  0.4952602424610575
  0.0014224899352868  0.7458287329024884  0.5118397956209293
  0.2500064887893316  0.7521109775223849  0.4977606292163372
  0.4970639270257138  0.7479227491256353  0.5008140752659642
  0.7481438037747310  0.7448698288606650  0.5073773682493155
  0.0078987898570446  0.0028702891163306  0.7446083545424784
  0.2418385218870398  0.9987295574195230  0.7559280157505270
  0.5203519346882501  0.9964682093066983  0.7465833455628825
  0.7504274330444574  0.0028474242252656  0.7517917075832870
  0.0037775524456052  0.2597340837892617  0.7368396103953998
  0.2531687460904308  0.2473157135000790  0.7478002607181082
  0.5037130785669603  0.2484388536231918  0.7517849757671229
  0.7462896890790418  0.2552020448813721  0.7409464226010058
  0.0025902554632253  0.4875605644654328  0.7500506884682849
  0.2496880372486601  0.5070028010566787  0.7448815765576171
  0.5007085495117636  0.4968710120201152  0.7426665906832568
  0.7467432273485244  0.4992579120375567  0.7543165353719203
  0.9999910788240101  0.7518180754168853  0.7606879958742070
  0.2520933718818981  0.7464169471904469  0.7624262015435903
  0.5170763394912044  0.7417136695395001  0.7408370559062760
  0.7472056394498878  0.7478925105278265  0.7529589397933449
  0.0721964328565861  0.0583945368253538  0.0689011073421142
  0.3035354880163226  0.0596361961441829  0.0631720168676040
  0.5675837151086185  0.0605853990972491  0.0660855685374742
  0.8155320018775782  0.0705110169885188  0.0623659581297389
  0.0636090265031584  0.3157483969163337  0.0723037081783460
  0.3056363679404583  0.3167804471547626  0.0684771901153880
  0.5722978454937646  0.3089467637929886  0.0630550481292858
  0.8097989858690937  0.3121856652528194  0.0608744719104806
  0.0559074194308096  0.5594816627185963  0.0675825869460951
  0.3026392199401329  0.5597565428317637  0.0741849840755222
  0.5735919362277855  0.5684353618331599  0.0513350239765273
  0.8133432642234908  0.5597871019748979  0.0672288237520462
  0.0561093587513426  0.8102364495180510  0.0641339729220505
  0.3148737521187357  0.8106781430426366  0.0717315582941396
  0.5693642102159728  0.7981007810076690  0.0641870465077545
  0.8167060752093249  0.8023187515488317  0.0742261866385761
  0.0678183692180596  0.0568342721651760  0.3156388013233880
  0.3157964241222473  0.0661517492296539  0.3145188329910837
  0.5663300858155438  0.0469428222493562  0.3082111117668376
  0.8105162955590188  0.0630941788610642  0.3088479995559297
  0.0657030934258174  0.3187828523212204  0.3026455482542971
  0.3039358240433003  0.3096930787677366  0.3245881751506019
  0.5653861984594357  0.3234334006782973  0.3062055034658613
  0.7988122633569006  0.3232213109516948  0.3123155344633233
  0.0483813817856742  0.5807945555173504  0.3131104242809499
  0.3147518334920463  0.5702018712152537  0.3102272953209138
  0.5530082413124688  0.5778520348161607  0.3152891348535434
  0.8124879379875694  0.5642185297718996  0.3064048243684425
  0.0681390810536939  0.8214192492630872  0.3070995791917710
  0.3206427167144952  0.8104467700116302  0.3119766751161421
  0.5587803155919460  0.8139723341936573  0.3069980234823930
  0.8212303200576585  0.8064586430991341  0.3128923449751042
  0.0716802199170061  0.0582550272324269  0.5593725625324097
  0.3045581359943199  0.0736847171133235  0.5604669200752070
  0.5553854681349151  0.0603628452205953  0.5679831646865878
  0.8174770403408829  0.0643536431596345  0.5689337532953260
  0.0671892542122237  0.3086523531746792  0.5623370812208819
  0.2990652530348541  0.3184340791334535  0.5581088121570161
  0.5621025978500427  0.3110666314463444  0.5634569942869021
  0.8140920526775801  0.3122881431800764  0.5636856130961689
  0.0514132964501712  0.5722445910791052  0.5557750251234452
  0.3146685985423687  0.5695520645796108  0.5574880956562964
  0.5651361035925291  0.5599582153188010  0.5655956301847453
  0.8137364155319204  0.5548378707520953  0.5658326706823686
  0.0698934356559349  0.8012314413621908  0.5661436423344952
  0.3191205049900816  0.8067377116830059  0.5638259626072895
  0.5504401931063043  0.8123125791374406  0.5597584330080991
  0.8135738589751895  0.8124753109191829  0.5637915617058979
  0.0692443996469549  0.0607801110576247  0.7991741792592890
  0.3243526227226639  0.0508240897851735  0.7972001917599769
  0.5659170825615760  0.0614052338515876  0.8179725609568465
  0.8109798613785628  0.0681698699426647  0.8071380416095408
  0.0663331838386370  0.3172508485186754  0.8045092529054827
  0.3044279950244615  0.3166066650412489  0.8158389023550541
  0.5691493668689560  0.2993375877584796  0.8098166214626517
  0.8014627611952037  0.3197520481627976  0.8116707459374908
  0.0581947585864739  0.5578777515794471  0.8111498215740838
  0.3087648282271545  0.5598859705172572  0.8155406264245926
  0.5572903922163661  0.5685483157392568  0.8066970459837606
  0.8256633511994806  0.5595377225701910  0.8001122341784779
  0.0723722992016462  0.8080395082726000  0.8076957312813420
  0.3138405516570586  0.8053518871204872  0.8195566628185418
  0.5748072803667981  0.8015232138685775  0.8112706124873839
  0.8261115096448464  0.7925894466197505  0.8074056864968568
 
  0.00000000E+00  0.00000000E+00  0.00000000E+00
  0.00000000E+00  0.00000000E+00  0.00000000E+00
  0.00000000E+00  0.00000000E+00  0.00000000E+00
  0.00000000E+00  0.00000000E+00  0.00000000E+00
  0.00000000E+00  0.00000000E+00  0.00000000E+00
  0.00000000E+00  0.00000000E+00  0.00000000E+00
  0.00000000E+00  0.00000000E+00  0.00000000E+00
  0.00000000E+00  0.00000000E+00  0.00000000E+00
  0.00000000E+00  0.00000000E+00  0.00000000E+00
  0.00000000E+00  0.00000000E+00  0.00000000E+00
  0.00000000E+00  0.00000000E+00  0.00000000E+00
  0.00000000E+00  0.00000000E+00  0.00000000E+00
  0.00000000E+00  0.00000000E+00  0.00000000E+00
  0.00000000E+00  0.00000000E+00  0.00000000E+00
  0.00000000E+00  0.00000000E+00  0.00000000E+00
  0.00000000E+00  0.00000000E+00  0.00000000E+00
  0.00000000E+00  0.00000000E+00  0.00000000E+00
  0.00000000E+00  0.00000000E+00  0.00000000E+00
  0.00000000E+00  0.00000000E+00  0.00000000E+00
  0.00000000E+00  0.00000000E+00  0.00000000E+00
  0.00000000E+00  0.00000000E+00  0.00000000E+00
  0.00000000E+00  0.00000000E+00  0.00000000E+00
  0.00000000E+00  0.00000000E+00  0.00000000E+00
  0.00000000E+00  0.00000000E+00  0.00000000E+00
  0.00000000E+00  0.00000000E+00  0.00000000E+00
  0.00000000E+00  0.00000000E+00  0.00000000E+00
  0.00000000E+00  0.00000000E+00  0.00000000E+00
  0.00000000E+00  0.00000000E+00  0.00000000E+00
  0.00000000E+00  0.00000000E+00  0.00000000E+00
  0.00000000E+00  0.00000000E+00  0.00000000E+00
  0.00000000E+00  0.00000000E+00  0.00000000E+00
  0.00000000E+00  0.00000000E+00  0.00000000E+00
  0.00000000E+00  0.00000000E+00  0.00000000E+00
  0.00000000E+00  0.00000000E+00  0.00000000E+00
  0.00000000E+00  0.00000000E+00  0.00000000E+00
  0.00000000E+00  0.00000000E+00  0.00000000E+00
  0.00000000E+00  0.00000000E+00  0.00000000E+00
  0.00000000E+00  0.00000000E+00  0.00000000E+00
  0.00000000E+00  0.00000000E+00  0.00000000E+00
  0.00000000E+00  0.00000000E+00  0.00000000E+00
  0.00000000E+00  0.00000000E+00  0.00000000E+00
  0.00000000E+00  0.00000000E+00  0.00000000E+00
  0.00000000E+00  0.00000000E+00  0.00000000E+00
  0.00000000E+00  0.00000000E+00  0.00000000E+00
  0.00000000E+00  0.00000000E+00  0.00000000E+00
  0.00000000E+00  0.00000000E+00  0.00000000E+00
  0.00000000E+00  0.00000000E+00  0.00000000E+00
  0.00000000E+00  0.00000000E+00  0.00000000E+00
  0.00000000E+00  0.00000000E+00  0.00000000E+00
  0.00000000E+00  0.00000000E+00  0.00000000E+00
  0.00000000E+00  0.00000000E+00  0.00000000E+00
  0.00000000E+00  0.00000000E+00  0.00000000E+00
  0.00000000E+00  0.00000000E+00  0.00000000E+00
  0.00000000E+00  0.00000000E+00  0.00000000E+00
  0.00000000E+00  0.00000000E+00  0.00000000E+00
  0.00000000E+00  0.00000000E+00  0.00000000E+00
  0.00000000E+00  0.00000000E+00  0.00000000E+00
  0.00000000E+00  0.00000000E+00  0.00000000E+00
  0.00000000E+00  0.00000000E+00  0.00000000E+00
  0.00000000E+00  0.00000000E+00  0.00000000E+00
  0.00000000E+00  0.00000000E+00  0.00000000E+00
  0.00000000E+00  0.00000000E+00  0.00000000E+00
  0.00000000E+00  0.00000000E+00  0.00000000E+00
  0.00000000E+00  0.00000000E+00  0.00000000E+00
  0.00000000E+00  0.00000000E+00  0.00000000E+00
  0.00000000E+00  0.00000000E+00  0.00000000E+00
  0.00000000E+00  0.00000000E+00  0.00000000E+00
  0.00000000E+00  0.00000000E+00  0.00000000E+00
  0.00000000E+00  0.00000000E+00  0.00000000E+00
  0.00000000E+00  0.00000000E+00  0.00000000E+00
  0.00000000E+00  0.00000000E+00  0.00000000E+00
  0.00000000E+00  0.00000000E+00  0.00000000E+00
  0.00000000E+00  0.00000000E+00  0.00000000E+00
  0.00000000E+00  0.00000000E+00  0.00000000E+00
  0.00000000E+00  0.00000000E+00  0.00000000E+00
  0.00000000E+00  0.00000000E+00  0.00000000E+00
  0.00000000E+00  0.00000000E+00  0.00000000E+00
  0.00000000E+00  0.00000000E+00  0.00000000E+00
  0.00000000E+00  0.00000000E+00  0.00000000E+00
  0.00000000E+00  0.00000000E+00  0.00000000E+00
  0.00000000E+00  0.00000000E+00  0.00000000E+00
  0.00000000E+00  0.00000000E+00  0.00000000E+00
  0.00000000E+00  0.00000000E+00  0.00000000E+00
  0.00000000E+00  0.00000000E+00  0.00000000E+00
  0.00000000E+00  0.00000000E+00  0.00000000E+00
  0.00000000E+00  0.00000000E+00  0.00000000E+00
  0.00000000E+00  0.00000000E+00  0.00000000E+00
  0.00000000E+00  0.00000000E+00  0.00000000E+00
  0.00000000E+00  0.00000000E+00  0.00000000E+00
  0.00000000E+00  0.00000000E+00  0.00000000E+00
  0.00000000E+00  0.00000000E+00  0.00000000E+00
  0.00000000E+00  0.00000000E+00  0.00000000E+00
  0.00000000E+00  0.00000000E+00  0.00000000E+00
  0.00000000E+00  0.00000000E+00  0.00000000E+00
  0.00000000E+00  0.00000000E+00  0.00000000E+00
  0.00000000E+00  0.00000000E+00  0.00000000E+00
  0.00000000E+00  0.00000000E+00  0.00000000E+00
  0.00000000E+00  0.00000000E+00  0.00000000E+00
  0.00000000E+00  0.00000000E+00  0.00000000E+00
  0.00000000E+00  0.00000000E+00  0.00000000E+00
  0.00000000E+00  0.00000000E+00  0.00000000E+00
  0.00000000E+00  0.00000000E+00  0.00000000E+00
  0.00000000E+00  0.00000000E+00  0.00000000E+00
  0.00000000E+00  0.00000000E+00  0.00000000E+00
  0.00000000E+00  0.00000000E+00  0.00000000E+00
  0.00000000E+00  0.00000000E+00  0.00000000E+00
  0.00000000E+00  0.00000000E+00  0.00000000E+00
  0.00000000E+00  0.00000000E+00  0.00000000E+00
  0.00000000E+00  0.00000000E+00  0.00000000E+00
  0.00000000E+00  0.00000000E+00  0.00000000E+00
  0.00000000E+00  0.00000000E+00  0.00000000E+00
  0.00000000E+00  0.00000000E+00  0.00000000E+00
  0.00000000E+00  0.00000000E+00  0.00000000E+00
  0.00000000E+00  0.00000000E+00  0.00000000E+00
  0.00000000E+00  0.00000000E+00  0.00000000E+00
  0.00000000E+00  0.00000000E+00  0.00000000E+00
  0.00000000E+00  0.00000000E+00  0.00000000E+00
  0.00000000E+00  0.00000000E+00  0.00000000E+00
  0.00000000E+00  0.00000000E+00  0.00000000E+00
  0.00000000E+00  0.00000000E+00  0.00000000E+00
  0.00000000E+00  0.00000000E+00  0.00000000E+00
  0.00000000E+00  0.00000000E+00  0.00000000E+00
  0.00000000E+00  0.00000000E+00  0.00000000E+00
  0.00000000E+00  0.00000000E+00  0.00000000E+00
  0.00000000E+00  0.00000000E+00  0.00000000E+00
  0.00000000E+00  0.00000000E+00  0.00000000E+00
  0.00000000E+00  0.00000000E+00  0.00000000E+00
  0.00000000E+00  0.00000000E+00  0.00000000E+00
