kk
 1.0000000000000000
     0.0000000000000000   10.9373336906932952   10.9373336906932952
    10.9373336906932952    0.0000000000000000   10.9373336906932952
    10.9373336906932952   10.9373336906932952    0.0000000000000000
 128
Direct
  0.0064504263851946  0.9997267584137849  0.0002050448553228
  0.2566396601882240  0.9994294762295499  0.9894764991440775
  0.5040018618189056  0.9965275339511022  0.9976456534726759
  0.7463382291983290  0.0138378146645377  0.9861188922127255
  0.9970143225568958  0.2424915872560286  0.9968986741913426
  0.2419861733220552  0.2436323553450954  0.0084392465296427
  0.4995189911228091  0.2426264308348212  0.9888242146535894
  0.7632506594720566  0.2407056907012857  0.9951976775169155
  0.0056729300981860  0.5023404534479053  0.9851925520442697
  0.2510769182150572  0.4999505409216601  0.9981922440659383
  0.4861775397319570  0.5054646298300339  0.9969199049743896
  0.7542843686832459  0.4918605694729229  0.0060603490334070
  0.0023954115836064  0.7505305810180068  0.9952365773527602
  0.2468318601902509  0.7489723560521176  0.0009457882560764
  0.4968921478007640  0.7522924888820439  0.0029397445007493
  0.7497216409816509  0.7502049691215268  0.9961755167755099
  0.0035284526822172  0.9951683092805370  0.2467628951295195
  0.2594238018918697  0.0048864133385100  0.2478320588694423
  0.5024994892138913  0.0047060796604588  0.2413652206137877
  0.7583902249240521  0.9993444681909273  0.2498606802516730
  0.9973161694883604  0.2434581259114531  0.2463602192980403
  0.2570233962970454  0.2449414932435698  0.2493483377993352
  0.5011408333092208  0.2579534386655504  0.2449403537183875
  0.7530002991397711  0.2548904918010298  0.2511705113028579
  0.0106905610058085  0.5054056553656820  0.2468044293374817
  0.2448691551495573  0.4937581054625177  0.2560718864420229
  0.4992495625243260  0.5026633842893473  0.2570367070567821
  0.7421116020660795  0.5038132109110306  0.2454701257813852
  0.0050930027680708  0.7525807363719690  0.2437662225785344
  0.2468327219278794  0.7514800196644336  0.2486900563470305
  0.5041892309054365  0.7534622115670507  0.2467359139385433
  0.7542172218303287  0.7438306718033459  0.2526611305912674
  0.0038195104034691  0.9966268564911841  0.5001441187522152
  0.2515701388809843  0.9943428232547056  0.4985379544780758
  0.4860651405634938  0.0072378460399012  0.5000585775113887
  0.7479987281746275  0.0109958381477115  0.4895899692688322
  0.0007645332315388  0.2516709500351196  0.4890023911838076
  0.2445238403222903  0.2540867967930210  0.5016942171027738
  0.4976480387776386  0.2538239718670945  0.5041202561709781
  0.7491298248598682  0.2539817900948174  0.4980035065942247
  0.0020242525892622  0.5061439012957532  0.4986942599846381
  0.2447721474451692  0.5058662231587034  0.4960775601381636
  0.5001589693843542  0.4947703482582909  0.4900141625006657
  0.7540850835224344  0.4941143930650682  0.4952602424610589
  0.0014224899352865  0.7458287329024910  0.5118397956209257
  0.2500064887893336  0.7521109775223827  0.4977606292163391
  0.4970639270257155  0.7479227491256345  0.5008140752659609
  0.7481438037747328  0.7448698288606617  0.5073773682493120
  0.0078987898570413  0.0028702891163294  0.7446083545424803
  0.2418385218870411  0.9987295574195236  0.7559280157505301
  0.5203519346882495  0.9964682093067005  0.7465833455628832
  0.7504274330444540  0.0028474242252680  0.7517917075832854
  0.0037775524456037  0.2597340837892635  0.7368396103954018
  0.2531687460904297  0.2473157135000821  0.7478002607181109
  0.5037130785669628  0.2484388536231914  0.7517849757671234
  0.7462896890790433  0.2552020448813686  0.7409464226010066
  0.0025902554632272  0.4875605644654302  0.7500506884682869
  0.2496880372486631  0.5070028010566759  0.7448815765576189
  0.5007085495117638  0.4968710120201179  0.7426665906832590
  0.7467432273485243  0.4992579120375541  0.7543165353719181
  0.9999910788240123  0.7518180754168878  0.7606879958742092
  0.2520933718818952  0.7464169471904457  0.7624262015435928
  0.5170763394912045  0.7417136695395032  0.7408370559062776
  0.7472056394498864  0.7478925105278251  0.7529589397933484
  0.0721964328565880  0.0583945368253526  0.0689011073421163
  0.3035354880163232  0.0596361961441794  0.0631720168676032
  0.5675837151086185  0.0605853990972513  0.0660855685374734
  0.8155320018775755  0.0705110169885184  0.0623659581297386
  0.0636090265031563  0.3157483969163327  0.0723037081783447
  0.3056363679404592  0.3167804471547653  0.0684771901153882
  0.5722978454937658  0.3089467637929896  0.0630550481292869
  0.8097989858690953  0.3121856652528166  0.0608744719104809
  0.0559074194308063  0.5594816627185950  0.0675825869460925
  0.3026392199401323  0.5597565428317645  0.0741849840755224
  0.5735919362277850  0.5684353618331626  0.0513350239765249
  0.8133432642234880  0.5597871019748988  0.0672288237520477
  0.0561093587513442  0.8102364495180505  0.0641339729220523
  0.3148737521187331  0.8106781430426340  0.0717315582941384
  0.5693642102159702  0.7981007810076698  0.0641870465077567
  0.8167060752093269  0.8023187515488305  0.0742261866385737
  0.0678183692180623  0.0568342721651736  0.3156388013233873
  0.3157964241222502  0.0661517492296566  0.3145188329910855
  0.5663300858155466  0.0469428222493537  0.3082111117668371
  0.8105162955590173  0.0630941788610661  0.3088479995559308
  0.0657030934258192  0.3187828523212224  0.3026455482542939
  0.3039358240433015  0.3096930787677369  0.3245881751506040
  0.5653861984594337  0.3234334006782971  0.3062055034658621
  0.7988122633569021  0.3232213109516975  0.3123155344633228
  0.0483813817856742  0.5807945555173497  0.3131104242809489
  0.3147518334920479  0.5702018712152515  0.3102272953209134
  0.5530082413124667  0.5778520348161613  0.3152891348535448
  0.8124879379875714  0.5642185297718989  0.3064048243684417
  0.0681390810536931  0.8214192492630893  0.3070995791917689
  0.3206427167144921  0.8104467700116319  0.3119766751161424
  0.5587803155919487  0.8139723341936554  0.3069980234823922
  0.8212303200576593  0.8064586430991336  0.3128923449751033
  0.0716802199170054  0.0582550272324259  0.5593725625324105
  0.3045581359943177  0.0736847171133201  0.5604669200752057
  0.5553854681349158  0.0603628452205928  0.5679831646865874
  0.8174770403408823  0.0643536431596329  0.5689337532953292
  0.0671892542122245  0.3086523531746765  0.5623370812208829
  0.2990652530348514  0.3184340791334568  0.5581088121570196
  0.5621025978500442  0.3110666314463471  0.5634569942869043
  0.8140920526775771  0.3122881431800786  0.5636856130961683
  0.0514132964501697  0.5722445910791024  0.5557750251234433
  0.3146685985423688  0.5695520645796137  0.5574880956562999
  0.5651361035925305  0.5599582153188026  0.5655956301847449
  0.8137364155319219  0.5548378707520955  0.5658326706823689
  0.0698934356559340  0.8012314413621878  0.5661436423344944
  0.3191205049900792  0.8067377116830037  0.5638259626072881
  0.5504401931063043  0.8123125791374424  0.5597584330081015
  0.8135738589751870  0.8124753109191823  0.5637915617058973
  0.0692443996469554  0.0607801110576212  0.7991741792592879
  0.3243526227226637  0.0508240897851707  0.7972001917599760
  0.5659170825615767  0.0614052338515877  0.8179725609568500
  0.8109798613785625  0.0681698699426640  0.8071380416095407
  0.0663331838386403  0.3172508485186782  0.8045092529054823
  0.3044279950244643  0.3166066650412505  0.8158389023550554
  0.5691493668689576  0.2993375877584781  0.8098166214626514
  0.8014627611952058  0.3197520481627960  0.8116707459374918
  0.0581947585864763  0.5578777515794501  0.8111498215740850
  0.3087648282271549  0.5598859705172605  0.8155406264245911
  0.5572903922163670  0.5685483157392570  0.8066970459837598
  0.8256633511994815  0.5595377225701894  0.8001122341784810
  0.0723722992016474  0.8080395082725970  0.8076957312813396
  0.3138405516570567  0.8053518871204896  0.8195566628185414
  0.5748072803667995  0.8015232138685773  0.8112706124873852
  0.8261115096448451  0.7925894466197518  0.8074056864968553
