kk                                      
   1.00000000000000     
     0.0000000000000000   10.9373336906932952   10.9373336906932952
    10.9373336906932952    0.0000000000000000   10.9373336906932952
    10.9373336906932952   10.9373336906932952    0.0000000000000000
   Si
   128
Direct
  0.9879195593266274  0.9943053437591232  0.0034706072102395
  0.2459098272216593  0.0068988330312578  0.0006098417965532
  0.4967491479216051  0.9979026875394368  0.0099325998809263
  0.7452654825864968  0.0020932207792512  0.9961604882449038
  0.0022586872061154  0.2444435702438241  0.0116136771351663
  0.2546146550158852  0.2391698443133663  0.0024776996003837
  0.4947625467522414  0.2580034277187693  0.0020455970700937
  0.7441877316647663  0.2372427678931004  0.0069496421550923
  0.0105296055017874  0.5008566802253540  0.9960434465408241
  0.2621517313436996  0.4948113677808692  0.0043911167135988
  0.5011990609148640  0.5090107524090186  0.0065579769093276
  0.7417671249080797  0.4991063150677633  0.0059151569013238
  0.9896513283682182  0.7366633829947133  0.0138490792475352
  0.2397751801330017  0.7483330269586332  0.0124838987117997
  0.4916980155862944  0.7490912046158087  0.0115559708514610
  0.7441114084504079  0.7572376764205515  0.0010737051939671
  0.9955908827323725  0.0069842043284467  0.2504832714167975
  0.2455800525684921  0.0021879057288601  0.2461073533064777
  0.5017852308799533  0.0025681855386068  0.2486898052619182
  0.7392707041649587  0.0105424835853540  0.2554474750473190
  0.0107588385925155  0.2480272448575462  0.2448667483612397
  0.2485842450702620  0.2347510505325872  0.2679693960945997
  0.4955656886026674  0.2531701502348156  0.2421616566951243
  0.7647621659001871  0.2442236590210385  0.2407310452019331
  0.0072355412801741  0.4934006990108770  0.2438649011187053
  0.2488582814479372  0.5035432366709429  0.2547194726979498
  0.4962125222239777  0.4989842899615127  0.2513887837609090
  0.7560635521454273  0.4962002108528054  0.2490761326700834
  0.9959762551425015  0.7487565330682173  0.2591724161737829
  0.2489371757973871  0.7422235810844455  0.2618887500389064
  0.4910511875186856  0.7538586684232129  0.2547894851752233
  0.7405966056912519  0.7510592659857593  0.2616063203335059
  0.0088486835627251  0.9970200314653539  0.4967306776663847
  0.2438476954962709  0.9918811495351605  0.5026391183346632
  0.5062280827795718  0.9995243090829575  0.5053406814045118
  0.7473659070057295  0.0008910067440411  0.5006998547747870
  0.9975764601367487  0.2460121758051343  0.5014497826646505
  0.2508577249458241  0.2613852386283781  0.4936825244310725
  0.4972295173879360  0.2535536075335756  0.4918112989643788
  0.7542808075251912  0.2664142337532098  0.4973735165150046
  0.0065164323609537  0.4997350647397454  0.4960369498283441
  0.2586966632756287  0.4984101125780356  0.5044890472398365
  0.5009532613198644  0.5053451285964741  0.4877804085978497
  0.7581708544776831  0.5038025942022557  0.5049714645142629
  0.0150736465526009  0.7562924669252595  0.4941509822830525
  0.2475039611720078  0.7384556214112905  0.5001940130921199
  0.4995956460571378  0.7486574977083436  0.4929272776621545
  0.7451224474271427  0.7558532885561462  0.5048268563893714
  0.9925458900850330  0.0073170513187080  0.7485621129542892
  0.2523856828735660  0.9991971577604275  0.7573460992763472
  0.4937965797596533  0.0140798368103390  0.7455105410475085
  0.7509328896431740  0.0041081723984959  0.7534419215964050
  0.0064759190831083  0.2434770415601548  0.7427630644147456
  0.2704689480993636  0.2524248508700566  0.7376343425664302
  0.4976931804398319  0.2552798900035427  0.7481617920725583
  0.7533613324245678  0.2508500774943627  0.7538331451673699
  0.0054211651574789  0.4910888679066687  0.7507221524589482
  0.2651566734425543  0.4941205458394435  0.7466913940821556
  0.4949922822648531  0.4986875032806495  0.7482916521838092
  0.7435678423377254  0.5018729574792928  0.7485987445605247
  0.0063324288703797  0.7498158723041897  0.7464770193873704
  0.2495613132201981  0.7443878778449573  0.7519600910396420
  0.4916536623412995  0.7541068365888250  0.7527617569646168
  0.7413727901358698  0.7489043322917297  0.7527129722434367
  0.0556971267279209  0.0657183989079542  0.0586108369845562
  0.3057551902758746  0.0665722006751679  0.0561279148741747
  0.5599220629600339  0.0715320246141147  0.0623637996609290
  0.8109716275952934  0.0602659698189143  0.0567498229065961
  0.0610213627314806  0.3252937277034817  0.0560061112356109
  0.2980096794066398  0.3202408577735056  0.0703040077665165
  0.5749795451138340  0.3183198641224294  0.0443193964461415
  0.8158092444501293  0.3055961777211706  0.0626815128329739
  0.0601751498171410  0.5621147595945146  0.0570312752299316
  0.3151353561320747  0.5668366199097932  0.0587625507692735
  0.5626473932402334  0.5612876287248056  0.0643006941570832
  0.8104512746107773  0.5814754896758814  0.0594664285344990
  0.0682850704804920  0.8059211523892458  0.0501207961766212
  0.3077271606804217  0.8140432163368558  0.0649654806113134
  0.5574088327717774  0.8035058848211492  0.0796511745141117
  0.8070340151193491  0.8244970324806999  0.0500929910895849
  0.0637844227065827  0.0485588531548657  0.3208497351210937
  0.2970897046478882  0.0659330643914871  0.3170141313507955
  0.5605163021487272  0.0656900219225847  0.3104384987748077
  0.8086076271769898  0.0649494702203270  0.3090438687197476
  0.0536889692941571  0.3088234432879844  0.3178876904881207
  0.3042078145659488  0.3345991456138577  0.3097405341898920
  0.5777785809303282  0.3165466389785934  0.2945738482856157
  0.8077891120377458  0.3163737239170743  0.3074698424005007
  0.0536575956815710  0.5699928896959321  0.3091598312311987
  0.3026436322794197  0.5618103604312523  0.3186050082126215
  0.5635543443025384  0.5702337912026678  0.3176291321850755
  0.8171753647698452  0.5660743759965499  0.3136798815217077
  0.0590893433109017  0.8170465395862934  0.3100307712418555
  0.3073869135672354  0.8165505782035751  0.3182849828655634
  0.5608641829495156  0.8177208275819723  0.3087956925277311
  0.8157126873124980  0.8148281695926869  0.3197766276317537
  0.0659543043635153  0.0639669613051979  0.5588785991093559
  0.3162465523129683  0.0764150574340690  0.5694089285110309
  0.5711069315790027  0.0616301949670870  0.5556642992063132
  0.8082982150114049  0.0645516973436315  0.5636583042214625
  0.0617141279082958  0.3265339888520344  0.5619778509636930
  0.3123323296400500  0.3042916643608180  0.5638867562343464
  0.5663591408857229  0.3128493001964827  0.5478778185855120
  0.8206775756738764  0.3084036179284766  0.5633606721837339
  0.0517403191657877  0.5629125686668743  0.5715308591984964
  0.3172899925611645  0.5659191598708304  0.5681978149533151
  0.5545635429143303  0.5710439977393165  0.5547296483598956
  0.8082656848535095  0.5800262932036091  0.5548249895317241
  0.0668374105117309  0.8200737476429936  0.5559674120962725
  0.3095481427801872  0.8137824500294784  0.5641376793251851
  0.5564676871334129  0.8027965725314843  0.5631302321546201
  0.7992984252362376  0.8080400894886424  0.5817029040021140
  0.0624727716517341  0.0635789612522686  0.8063780927362387
  0.3114995160112528  0.0693932029613862  0.8101045623682097
  0.5489041958742646  0.0664205494302621  0.8215205456276422
  0.8077419054105306  0.0753446872380579  0.8074031848915482
  0.0728004160943883  0.3134100622498224  0.8068414986749701
  0.3162117232843897  0.3092059894271202  0.8221578188718439
  0.5552394109742806  0.3135708655050280  0.8172709344829769
  0.8079297258165994  0.3209221530402857  0.8139431545228319
  0.0814078862748318  0.5571587869197998  0.7923469170203390
  0.3133985471588687  0.5637264433484219  0.8159344671405293
  0.5697041132256899  0.5768426661570132  0.8029222360267383
  0.8094741543007586  0.5625044974703499  0.8138582866109729
  0.0601829976746515  0.8237334706808142  0.8063994735884208
  0.3135807396955101  0.8157590384853961  0.8064956190785821
  0.5541800396147423  0.8186074085632455  0.8167571044723800
  0.8151690029220475  0.8114337722316591  0.8038836250803385
 
  0.00000000E+00  0.00000000E+00  0.00000000E+00
  0.00000000E+00  0.00000000E+00  0.00000000E+00
  0.00000000E+00  0.00000000E+00  0.00000000E+00
  0.00000000E+00  0.00000000E+00  0.00000000E+00
  0.00000000E+00  0.00000000E+00  0.00000000E+00
  0.00000000E+00  0.00000000E+00  0.00000000E+00
  0.00000000E+00  0.00000000E+00  0.00000000E+00
  0.00000000E+00  0.00000000E+00  0.00000000E+00
  0.00000000E+00  0.00000000E+00  0.00000000E+00
  0.00000000E+00  0.00000000E+00  0.00000000E+00
  0.00000000E+00  0.00000000E+00  0.00000000E+00
  0.00000000E+00  0.00000000E+00  0.00000000E+00
  0.00000000E+00  0.00000000E+00  0.00000000E+00
  0.00000000E+00  0.00000000E+00  0.00000000E+00
  0.00000000E+00  0.00000000E+00  0.00000000E+00
  0.00000000E+00  0.00000000E+00  0.00000000E+00
  0.00000000E+00  0.00000000E+00  0.00000000E+00
  0.00000000E+00  0.00000000E+00  0.00000000E+00
  0.00000000E+00  0.00000000E+00  0.00000000E+00
  0.00000000E+00  0.00000000E+00  0.00000000E+00
  0.00000000E+00  0.00000000E+00  0.00000000E+00
  0.00000000E+00  0.00000000E+00  0.00000000E+00
  0.00000000E+00  0.00000000E+00  0.00000000E+00
  0.00000000E+00  0.00000000E+00  0.00000000E+00
  0.00000000E+00  0.00000000E+00  0.00000000E+00
  0.00000000E+00  0.00000000E+00  0.00000000E+00
  0.00000000E+00  0.00000000E+00  0.00000000E+00
  0.00000000E+00  0.00000000E+00  0.00000000E+00
  0.00000000E+00  0.00000000E+00  0.00000000E+00
  0.00000000E+00  0.00000000E+00  0.00000000E+00
  0.00000000E+00  0.00000000E+00  0.00000000E+00
  0.00000000E+00  0.00000000E+00  0.00000000E+00
  0.00000000E+00  0.00000000E+00  0.00000000E+00
  0.00000000E+00  0.00000000E+00  0.00000000E+00
  0.00000000E+00  0.00000000E+00  0.00000000E+00
  0.00000000E+00  0.00000000E+00  0.00000000E+00
  0.00000000E+00  0.00000000E+00  0.00000000E+00
  0.00000000E+00  0.00000000E+00  0.00000000E+00
  0.00000000E+00  0.00000000E+00  0.00000000E+00
  0.00000000E+00  0.00000000E+00  0.00000000E+00
  0.00000000E+00  0.00000000E+00  0.00000000E+00
  0.00000000E+00  0.00000000E+00  0.00000000E+00
  0.00000000E+00  0.00000000E+00  0.00000000E+00
  0.00000000E+00  0.00000000E+00  0.00000000E+00
  0.00000000E+00  0.00000000E+00  0.00000000E+00
  0.00000000E+00  0.00000000E+00  0.00000000E+00
  0.00000000E+00  0.00000000E+00  0.00000000E+00
  0.00000000E+00  0.00000000E+00  0.00000000E+00
  0.00000000E+00  0.00000000E+00  0.00000000E+00
  0.00000000E+00  0.00000000E+00  0.00000000E+00
  0.00000000E+00  0.00000000E+00  0.00000000E+00
  0.00000000E+00  0.00000000E+00  0.00000000E+00
  0.00000000E+00  0.00000000E+00  0.00000000E+00
  0.00000000E+00  0.00000000E+00  0.00000000E+00
  0.00000000E+00  0.00000000E+00  0.00000000E+00
  0.00000000E+00  0.00000000E+00  0.00000000E+00
  0.00000000E+00  0.00000000E+00  0.00000000E+00
  0.00000000E+00  0.00000000E+00  0.00000000E+00
  0.00000000E+00  0.00000000E+00  0.00000000E+00
  0.00000000E+00  0.00000000E+00  0.00000000E+00
  0.00000000E+00  0.00000000E+00  0.00000000E+00
  0.00000000E+00  0.00000000E+00  0.00000000E+00
  0.00000000E+00  0.00000000E+00  0.00000000E+00
  0.00000000E+00  0.00000000E+00  0.00000000E+00
  0.00000000E+00  0.00000000E+00  0.00000000E+00
  0.00000000E+00  0.00000000E+00  0.00000000E+00
  0.00000000E+00  0.00000000E+00  0.00000000E+00
  0.00000000E+00  0.00000000E+00  0.00000000E+00
  0.00000000E+00  0.00000000E+00  0.00000000E+00
  0.00000000E+00  0.00000000E+00  0.00000000E+00
  0.00000000E+00  0.00000000E+00  0.00000000E+00
  0.00000000E+00  0.00000000E+00  0.00000000E+00
  0.00000000E+00  0.00000000E+00  0.00000000E+00
  0.00000000E+00  0.00000000E+00  0.00000000E+00
  0.00000000E+00  0.00000000E+00  0.00000000E+00
  0.00000000E+00  0.00000000E+00  0.00000000E+00
  0.00000000E+00  0.00000000E+00  0.00000000E+00
  0.00000000E+00  0.00000000E+00  0.00000000E+00
  0.00000000E+00  0.00000000E+00  0.00000000E+00
  0.00000000E+00  0.00000000E+00  0.00000000E+00
  0.00000000E+00  0.00000000E+00  0.00000000E+00
  0.00000000E+00  0.00000000E+00  0.00000000E+00
  0.00000000E+00  0.00000000E+00  0.00000000E+00
  0.00000000E+00  0.00000000E+00  0.00000000E+00
  0.00000000E+00  0.00000000E+00  0.00000000E+00
  0.00000000E+00  0.00000000E+00  0.00000000E+00
  0.00000000E+00  0.00000000E+00  0.00000000E+00
  0.00000000E+00  0.00000000E+00  0.00000000E+00
  0.00000000E+00  0.00000000E+00  0.00000000E+00
  0.00000000E+00  0.00000000E+00  0.00000000E+00
  0.00000000E+00  0.00000000E+00  0.00000000E+00
  0.00000000E+00  0.00000000E+00  0.00000000E+00
  0.00000000E+00  0.00000000E+00  0.00000000E+00
  0.00000000E+00  0.00000000E+00  0.00000000E+00
  0.00000000E+00  0.00000000E+00  0.00000000E+00
  0.00000000E+00  0.00000000E+00  0.00000000E+00
  0.00000000E+00  0.00000000E+00  0.00000000E+00
  0.00000000E+00  0.00000000E+00  0.00000000E+00
  0.00000000E+00  0.00000000E+00  0.00000000E+00
  0.00000000E+00  0.00000000E+00  0.00000000E+00
  0.00000000E+00  0.00000000E+00  0.00000000E+00
  0.00000000E+00  0.00000000E+00  0.00000000E+00
  0.00000000E+00  0.00000000E+00  0.00000000E+00
  0.00000000E+00  0.00000000E+00  0.00000000E+00
  0.00000000E+00  0.00000000E+00  0.00000000E+00
  0.00000000E+00  0.00000000E+00  0.00000000E+00
  0.00000000E+00  0.00000000E+00  0.00000000E+00
  0.00000000E+00  0.00000000E+00  0.00000000E+00
  0.00000000E+00  0.00000000E+00  0.00000000E+00
  0.00000000E+00  0.00000000E+00  0.00000000E+00
  0.00000000E+00  0.00000000E+00  0.00000000E+00
  0.00000000E+00  0.00000000E+00  0.00000000E+00
  0.00000000E+00  0.00000000E+00  0.00000000E+00
  0.00000000E+00  0.00000000E+00  0.00000000E+00
  0.00000000E+00  0.00000000E+00  0.00000000E+00
  0.00000000E+00  0.00000000E+00  0.00000000E+00
  0.00000000E+00  0.00000000E+00  0.00000000E+00
  0.00000000E+00  0.00000000E+00  0.00000000E+00
  0.00000000E+00  0.00000000E+00  0.00000000E+00
  0.00000000E+00  0.00000000E+00  0.00000000E+00
  0.00000000E+00  0.00000000E+00  0.00000000E+00
  0.00000000E+00  0.00000000E+00  0.00000000E+00
  0.00000000E+00  0.00000000E+00  0.00000000E+00
  0.00000000E+00  0.00000000E+00  0.00000000E+00
  0.00000000E+00  0.00000000E+00  0.00000000E+00
  0.00000000E+00  0.00000000E+00  0.00000000E+00
  0.00000000E+00  0.00000000E+00  0.00000000E+00
  0.00000000E+00  0.00000000E+00  0.00000000E+00
