kk
 1.0000000000000000
     0.0000000000000000   10.9373336906932952   10.9373336906932952
    10.9373336906932952    0.0000000000000000   10.9373336906932952
    10.9373336906932952   10.9373336906932952    0.0000000000000000
 128
Direct
  0.9879195593266262  0.9943053437591232  0.0034706072102372
  0.2459098272216615  0.0068988330312561  0.0006098417965524
  0.4967491479216027  0.9979026875394384  0.0099325998809238
  0.7452654825864982  0.0020932207792500  0.9961604882449041
  0.0022586872061143  0.2444435702438272  0.0116136771351669
  0.2546146550158849  0.2391698443133628  0.0024776996003803
  0.4947625467522389  0.2580034277187691  0.0020455970700911
  0.7441877316647696  0.2372427678930984  0.0069496421550945
  0.0105296055017870  0.5008566802253553  0.9960434465408253
  0.2621517313437028  0.4948113677808711  0.0043911167136020
  0.5011990609148611  0.5090107524090181  0.0065579769093279
  0.7417671249080829  0.4991063150677648  0.0059151569013269
  0.9896513283682180  0.7366633829947149  0.0138490792475327
  0.2397751801330014  0.7483330269586318  0.0124838987118008
  0.4916980155862942  0.7490912046158106  0.0115559708514618
  0.7441114084504110  0.7572376764205506  0.0010737051939673
  0.9955908827323728  0.0069842043284464  0.2504832714167999
  0.2455800525684887  0.0021879057288623  0.2461073533064796
  0.5017852308799530  0.0025681855386068  0.2486898052619181
  0.7392707041649617  0.0105424835853545  0.2554474750473189
  0.0107588385925163  0.2480272448575427  0.2448667483612393
  0.2485842450702594  0.2347510505325845  0.2679693960945963
  0.4955656886026664  0.2531701502348134  0.2421616566951223
  0.7647621659001838  0.2442236590210378  0.2407310452019311
  0.0072355412801719  0.4934006990108768  0.2438649011187063
  0.2488582814479405  0.5035432366709435  0.2547194726979529
  0.4962125222239771  0.4989842899615126  0.2513887837609088
  0.7560635521454305  0.4962002108528023  0.2490761326700812
  0.9959762551425035  0.7487565330682150  0.2591724161737827
  0.2489371757973888  0.7422235810844460  0.2618887500389052
  0.4910511875186887  0.7538586684232135  0.2547894851752205
  0.7405966056912516  0.7510592659857579  0.2616063203335049
  0.0088486835627238  0.9970200314653566  0.4967306776663861
  0.2438476954962692  0.9918811495351629  0.5026391183346652
  0.5062280827795751  0.9995243090829571  0.5053406814045133
  0.7473659070057307  0.0008910067440428  0.5006998547747841
  0.9975764601367474  0.2460121758051376  0.5014497826646482
  0.2508577249458212  0.2613852386283764  0.4936825244310752
  0.4972295173879368  0.2535536075335756  0.4918112989643780
  0.7542808075251882  0.2664142337532079  0.4973735165150068
  0.0065164323609515  0.4997350647397453  0.4960369498283410
  0.2586966632756281  0.4984101125780334  0.5044890472398382
  0.5009532613198679  0.5053451285964724  0.4877804085978500
  0.7581708544776847  0.5038025942022567  0.5049714645142613
  0.0150736465525994  0.7562924669252571  0.4941509822830504
  0.2475039611720099  0.7384556214112927  0.5001940130921170
  0.4995956460571407  0.7486574977083408  0.4929272776621513
  0.7451224474271422  0.7558532885561444  0.5048268563893695
  0.9925458900850348  0.0073170513187049  0.7485621129542882
  0.2523856828735671  0.9991971577604244  0.7573460992763440
  0.4937965797596507  0.0140798368103420  0.7455105410475118
  0.7509328896431710  0.0041081723984955  0.7534419215964053
  0.0064759190831057  0.2434770415601518  0.7427630644147490
  0.2704689480993656  0.2524248508700553  0.7376343425664272
  0.4976931804398327  0.2552798900035398  0.7481617920725567
  0.7533613324245683  0.2508500774943621  0.7538331451673707
  0.0054211651574822  0.4910888679066713  0.7507221524589457
  0.2651566734425531  0.4941205458394433  0.7466913940821536
  0.4949922822648518  0.4986875032806483  0.7482916521838080
  0.7435678423377252  0.5018729574792911  0.7485987445605224
  0.0063324288703816  0.7498158723041876  0.7464770193873709
  0.2495613132201953  0.7443878778449555  0.7519600910396409
  0.4916536623413019  0.7541068365888254  0.7527617569646176
  0.7413727901358667  0.7489043322917284  0.7527129722434333
  0.0556971267279225  0.0657183989079514  0.0586108369845592
  0.3057551902758711  0.0665722006751698  0.0561279148741740
  0.5599220629600319  0.0715320246141112  0.0623637996609274
  0.8109716275952956  0.0602659698189160  0.0567498229065992
  0.0610213627314794  0.3252937277034794  0.0560061112356097
  0.2980096794066391  0.3202408577735075  0.0703040077665184
  0.5749795451138368  0.3183198641224299  0.0443193964461390
  0.8158092444501324  0.3055961777211724  0.0626815128329739
  0.0601751498171376  0.5621147595945127  0.0570312752299297
  0.3151353561320732  0.5668366199097901  0.0587625507692730
  0.5626473932402312  0.5612876287248025  0.0643006941570852
  0.8104512746107760  0.5814754896758836  0.0594664285344994
  0.0682850704804902  0.8059211523892437  0.0501207961766235
  0.3077271606804219  0.8140432163368593  0.0649654806113148
  0.5574088327717744  0.8035058848211497  0.0796511745141125
  0.8070340151193524  0.8244970324806997  0.0500929910895836
  0.0637844227065860  0.0485588531548642  0.3208497351210919
  0.2970897046478869  0.0659330643914900  0.3170141313507970
  0.5605163021487277  0.0656900219225835  0.3104384987748053
  0.8086076271769875  0.0649494702203275  0.3090438687197449
  0.0536889692941605  0.3088234432879821  0.3178876904881213
  0.3042078145659504  0.3345991456138581  0.3097405341898928
  0.5777785809303274  0.3165466389785963  0.2945738482856181
  0.8077891120377474  0.3163737239170764  0.3074698424005005
  0.0536575956815698  0.5699928896959303  0.3091598312311994
  0.3026436322794223  0.5618103604312491  0.3186050082126180
  0.5635543443025377  0.5702337912026690  0.3176291321850735
  0.8171753647698483  0.5660743759965526  0.3136798815217064
  0.0590893433109009  0.8170465395862958  0.3100307712418531
  0.3073869135672369  0.8165505782035767  0.3182849828655641
  0.5608641829495131  0.8177208275819714  0.3087956925277310
  0.8157126873124964  0.8148281695926839  0.3197766276317526
  0.0659543043635170  0.0639669613051952  0.5588785991093529
  0.3162465523129694  0.0764150574340711  0.5694089285110280
  0.5711069315790032  0.0616301949670852  0.5556642992063160
  0.8082982150114053  0.0645516973436307  0.5636583042214658
  0.0617141279082960  0.3265339888520346  0.5619778509636936
  0.3123323296400533  0.3042916643608157  0.5638867562343429
  0.5663591408857239  0.3128493001964814  0.5478778185855108
  0.8206775756738748  0.3084036179284794  0.5633606721837356
  0.0517403191657860  0.5629125686668710  0.5715308591984942
  0.3172899925611619  0.5659191598708275  0.5681978149533169
  0.5545635429143323  0.5710439977393141  0.5547296483598950
  0.8082656848535096  0.5800262932036072  0.5548249895317218
  0.0668374105117283  0.8200737476429905  0.5559674120962746
  0.3095481427801843  0.8137824500294804  0.5641376793251824
  0.5564676871334132  0.8027965725314846  0.5631302321546192
  0.7992984252362342  0.8080400894886396  0.5817029040021137
  0.0624727716517370  0.0635789612522711  0.8063780927362391
  0.3114995160112523  0.0693932029613828  0.8101045623682076
  0.5489041958742641  0.0664205494302641  0.8215205456276408
  0.8077419054105327  0.0753446872380567  0.8074031848915489
  0.0728004160943848  0.3134100622498190  0.8068414986749730
  0.3162117232843890  0.3092059894271187  0.8221578188718450
  0.5552394109742789  0.3135708655050251  0.8172709344829749
  0.8079297258165995  0.3209221530402875  0.8139431545228335
  0.0814078862748344  0.5571587869197974  0.7923469170203364
  0.3133985471588671  0.5637264433484217  0.8159344671405292
  0.5697041132256910  0.5768426661570101  0.8029222360267402
  0.8094741543007598  0.5625044974703501  0.8138582866109724
  0.0601829976746531  0.8237334706808112  0.8063994735884229
  0.3135807396955125  0.8157590384853963  0.8064956190785828
  0.5541800396147439  0.8186074085632460  0.8167571044723813
  0.8151690029220507  0.8114337722316560  0.8038836250803353
