kk                                      
   1.00000000000000     
     0.0000000000000000   10.9373336906932952   10.9373336906932952
    10.9373336906932952    0.0000000000000000   10.9373336906932952
    10.9373336906932952   10.9373336906932952    0.0000000000000000
   Si
   128
Direct
  0.9951134288222434  0.0042285997804612  0.0132392270095920
  0.2561258563366380  0.9940978739621258  0.9864410642184254
  0.4971919785588739  0.9980862665806782  0.9950082384719749
  0.7627771829270102  0.9954666900942328  0.9862632707716088
  0.9926459861667212  0.2549996081206274  0.9887810290354082
  0.2545606358604857  0.2528605463131228  0.9892538622112852
  0.5003635757913116  0.2569964175649417  0.9895921106887258
  0.7421138197620181  0.2500001560628817  0.0046742751005624
  0.9963509407982656  0.5088578719391919  0.9850989495208111
  0.2512547613957565  0.5055442164649548  0.9964403942555222
  0.5021658449890936  0.5094715891594603  0.0042228615635977
  0.7548004298963704  0.4979678080822794  0.9960140117982448
  0.0114552697766541  0.7468378816289487  0.9852746372115675
  0.2452368850130213  0.7505664073754730  0.9918341267317530
  0.4994201660989859  0.7442932228583317  0.9997686427468864
  0.7437127136461044  0.7519355749957839  0.0117870081586133
  0.9882011346906623  0.9990253386086465  0.2618392966546494
  0.2432463926739175  0.0015415799880927  0.2490179900894844
  0.4928065313560026  0.9963407006145530  0.2641472885001264
  0.7487316182268486  0.9911334859354355  0.2551058355263223
  0.0118767972945122  0.2420428868706637  0.2536690857741419
  0.2450187341508254  0.2563479440318659  0.2407769453139537
  0.4988044594372525  0.2347240542401323  0.2542201307871608
  0.7563226632519999  0.2389261713250548  0.2551423332561384
  0.0032334222059660  0.5020134419907833  0.2454671976829204
  0.2585766729447840  0.4996305354756032  0.2587683295165917
  0.5040892342650025  0.4947103398575621  0.2507836903702270
  0.7550525067564351  0.5059684399133104  0.2427843967948320
  0.9942064825400863  0.7422640938763081  0.2475440000924962
  0.2572270752292809  0.7537003244525806  0.2451672651852306
  0.4938862605475336  0.7405017184998286  0.2621500102426850
  0.7485483221543205  0.7445515559623317  0.2560170640590727
  0.9933587141788038  0.0130663322070887  0.5021734676589560
  0.2493837567372239  0.9913447901204648  0.5126099654823975
  0.4967767225919459  0.9884680272931377  0.4930396194931248
  0.7427762249235172  0.0020912911952848  0.4938578648356966
  0.9977518895557083  0.2483707380374867  0.4980180968617063
  0.2473724911259225  0.2531443196129288  0.5068920613702304
  0.4937530409855952  0.2474135981728836  0.5130128517593491
  0.7402913308989838  0.2583164632768842  0.4963855196432760
  0.0003927740781720  0.5078553817911029  0.4898728732090163
  0.2386770609340090  0.5070172387484604  0.5074218036196143
  0.4920558325074538  0.4990815233293162  0.5084855128074395
  0.7408676298573766  0.4915011370563676  0.5051687827383446
  0.9984570316421610  0.7513343553364820  0.4928230447501178
  0.2509969477912080  0.7457263368618285  0.5025678578585655
  0.4864760799955121  0.7623137763484280  0.4875625626177325
  0.7480473392486431  0.7395847775225519  0.5113541697536874
  0.9913256173720839  0.0162434021910798  0.7484614152960702
  0.2483257898339062  0.9941472188064395  0.7467150196395664
  0.4988364720459586  0.0025738006043881  0.7510899088256693
  0.7425668416215814  0.9971266131373113  0.7556830155395673
  0.9958846059166007  0.2542841836026284  0.7510585453869680
  0.2368594066933127  0.2563056890364663  0.7495337064866305
  0.5071932151570238  0.2409823546884269  0.7513806158215885
  0.7593799079506880  0.2555020773293037  0.7404343237569435
  0.0009805763992858  0.4998743771740735  0.7507823615379365
  0.2468328153682648  0.4978403974105419  0.7662752826915096
  0.5118490647928695  0.4899203877698284  0.7528521625591367
  0.7533439963306989  0.5057401722103094  0.7474631964232330
  0.9956193902206039  0.7477795593655827  0.7515390729360618
  0.2452813462482339  0.7601978096421860  0.7424458704744268
  0.5024034197732519  0.7541493636328127  0.7392105995852916
  0.7532519258402672  0.7446927476727652  0.7497220659824819
  0.0727522853737312  0.0661878446055297  0.0590416171082282
  0.3211551044230134  0.0569642201043621  0.0672756822354188
  0.5572315457096906  0.0570550958341229  0.0710766025997316
  0.8141447309729628  0.0601955288586922  0.0561166670701780
  0.0648213717019956  0.3106288438620766  0.0705528082426881
  0.3125622070287690  0.2986656897854374  0.0608810515469145
  0.5734098259100264  0.3137148140341210  0.0538209578133007
  0.8162772206733990  0.3141366939108323  0.0621945951541747
  0.0681996800385889  0.5644442914438486  0.0627050228359423
  0.3226753623369945  0.5555365218748491  0.0643642024263187
  0.5683551962070936  0.5599720326408786  0.0660819942488260
  0.8074389786285607  0.5564304111975531  0.0592113661032911
  0.0612060254084170  0.8113091665576135  0.0635830251523188
  0.3105586576145285  0.7965929577598203  0.0657128266306302
  0.5678605281187288  0.8058908827505249  0.0726469846860454
  0.8149509791692893  0.8133835137944132  0.0665364879717387
  0.0522939790511145  0.0582394769885966  0.3170803451619548
  0.3204302430788033  0.0564987467738192  0.3188141140860381
  0.5683058198056230  0.0519918815776848  0.3074797491227983
  0.8068363215536820  0.0575610692420838  0.3176524003751524
  0.0641123263349925  0.3020929115136184  0.3162887485420001
  0.3173308609886973  0.3057724020524546  0.3250398772743637
  0.5697884498373824  0.3036990864281819  0.3024268542172948
  0.8028608192234472  0.3190015925826160  0.3173808123471389
  0.0561338066780266  0.5653850629590735  0.3256912908782681
  0.3172689159777633  0.5601124483670077  0.3100612406433925
  0.5491495795490096  0.5565320138487024  0.3209626303478004
  0.8136692886537773  0.5600668547546235  0.3233018408691635
  0.0583184966927277  0.8139816557485773  0.3134266865197972
  0.3095253338891126  0.8117626932008903  0.3149979652848813
  0.5693486972112680  0.8095600478188274  0.3098665094638164
  0.7940911098603323  0.8125929197542874  0.3319191425776182
  0.0663788611976202  0.0664933981230433  0.5595261393610542
  0.3168032924371786  0.0646678263679021  0.5689444078854891
  0.5579338896554660  0.0628772619197591  0.5640067013712269
  0.8145987478204546  0.0620375229481667  0.5665474417625092
  0.0607723486115646  0.3104444639149762  0.5661881179330379
  0.3144007774510129  0.3096101538214526  0.5616424152701924
  0.5595246406263570  0.3202942258655810  0.5616850714054706
  0.8191903952291852  0.3169366112853638  0.5659847891339354
  0.0519332082022288  0.5671429619801742  0.5639006209618600
  0.3159845732958004  0.5550039670155869  0.5669493038262203
  0.5573503413028291  0.5654937721172359  0.5731844403815600
  0.8050577133199894  0.5545048872467291  0.5648429432276387
  0.0510663226391443  0.8097452645392949  0.5754895508528151
  0.3121187868763613  0.8003682819907283  0.5625896734277092
  0.5625646558692381  0.8088702714324683  0.5576930419729109
  0.8173340085962977  0.8128412036041155  0.5643672771227415
  0.0687902983127131  0.0476694466995724  0.8163894394263451
  0.3162738830606457  0.0611435617136848  0.8104201707246119
  0.5540615081711806  0.0730805093924189  0.8105194233515007
  0.8046947785301484  0.0597501336913808  0.8122719834945684
  0.0611213935251200  0.3219565301443552  0.8104823197135929
  0.3194384167280759  0.3112852432369877  0.8097788689830026
  0.5627590573670602  0.3167584042503506  0.8053465886611946
  0.8139170775716593  0.3023884700004302  0.8083729010715004
  0.0617666575393443  0.5593386995886362  0.8066925091973971
  0.3177691740187640  0.5586701190438248  0.8126158927216665
  0.5545718249730740  0.5585728613346035  0.8194897985751908
  0.8201130337818370  0.5568219914927113  0.8120026174412942
  0.0691242494688566  0.8123964114776427  0.8134657141505173
  0.3146884555739859  0.8139155743394255  0.8105361077940145
  0.5695760384256587  0.8100798525442485  0.8140718988271445
  0.8087574012586956  0.8111793078574365  0.8062207902633389
 
  0.00000000E+00  0.00000000E+00  0.00000000E+00
  0.00000000E+00  0.00000000E+00  0.00000000E+00
  0.00000000E+00  0.00000000E+00  0.00000000E+00
  0.00000000E+00  0.00000000E+00  0.00000000E+00
  0.00000000E+00  0.00000000E+00  0.00000000E+00
  0.00000000E+00  0.00000000E+00  0.00000000E+00
  0.00000000E+00  0.00000000E+00  0.00000000E+00
  0.00000000E+00  0.00000000E+00  0.00000000E+00
  0.00000000E+00  0.00000000E+00  0.00000000E+00
  0.00000000E+00  0.00000000E+00  0.00000000E+00
  0.00000000E+00  0.00000000E+00  0.00000000E+00
  0.00000000E+00  0.00000000E+00  0.00000000E+00
  0.00000000E+00  0.00000000E+00  0.00000000E+00
  0.00000000E+00  0.00000000E+00  0.00000000E+00
  0.00000000E+00  0.00000000E+00  0.00000000E+00
  0.00000000E+00  0.00000000E+00  0.00000000E+00
  0.00000000E+00  0.00000000E+00  0.00000000E+00
  0.00000000E+00  0.00000000E+00  0.00000000E+00
  0.00000000E+00  0.00000000E+00  0.00000000E+00
  0.00000000E+00  0.00000000E+00  0.00000000E+00
  0.00000000E+00  0.00000000E+00  0.00000000E+00
  0.00000000E+00  0.00000000E+00  0.00000000E+00
  0.00000000E+00  0.00000000E+00  0.00000000E+00
  0.00000000E+00  0.00000000E+00  0.00000000E+00
  0.00000000E+00  0.00000000E+00  0.00000000E+00
  0.00000000E+00  0.00000000E+00  0.00000000E+00
  0.00000000E+00  0.00000000E+00  0.00000000E+00
  0.00000000E+00  0.00000000E+00  0.00000000E+00
  0.00000000E+00  0.00000000E+00  0.00000000E+00
  0.00000000E+00  0.00000000E+00  0.00000000E+00
  0.00000000E+00  0.00000000E+00  0.00000000E+00
  0.00000000E+00  0.00000000E+00  0.00000000E+00
  0.00000000E+00  0.00000000E+00  0.00000000E+00
  0.00000000E+00  0.00000000E+00  0.00000000E+00
  0.00000000E+00  0.00000000E+00  0.00000000E+00
  0.00000000E+00  0.00000000E+00  0.00000000E+00
  0.00000000E+00  0.00000000E+00  0.00000000E+00
  0.00000000E+00  0.00000000E+00  0.00000000E+00
  0.00000000E+00  0.00000000E+00  0.00000000E+00
  0.00000000E+00  0.00000000E+00  0.00000000E+00
  0.00000000E+00  0.00000000E+00  0.00000000E+00
  0.00000000E+00  0.00000000E+00  0.00000000E+00
  0.00000000E+00  0.00000000E+00  0.00000000E+00
  0.00000000E+00  0.00000000E+00  0.00000000E+00
  0.00000000E+00  0.00000000E+00  0.00000000E+00
  0.00000000E+00  0.00000000E+00  0.00000000E+00
  0.00000000E+00  0.00000000E+00  0.00000000E+00
  0.00000000E+00  0.00000000E+00  0.00000000E+00
  0.00000000E+00  0.00000000E+00  0.00000000E+00
  0.00000000E+00  0.00000000E+00  0.00000000E+00
  0.00000000E+00  0.00000000E+00  0.00000000E+00
  0.00000000E+00  0.00000000E+00  0.00000000E+00
  0.00000000E+00  0.00000000E+00  0.00000000E+00
  0.00000000E+00  0.00000000E+00  0.00000000E+00
  0.00000000E+00  0.00000000E+00  0.00000000E+00
  0.00000000E+00  0.00000000E+00  0.00000000E+00
  0.00000000E+00  0.00000000E+00  0.00000000E+00
  0.00000000E+00  0.00000000E+00  0.00000000E+00
  0.00000000E+00  0.00000000E+00  0.00000000E+00
  0.00000000E+00  0.00000000E+00  0.00000000E+00
  0.00000000E+00  0.00000000E+00  0.00000000E+00
  0.00000000E+00  0.00000000E+00  0.00000000E+00
  0.00000000E+00  0.00000000E+00  0.00000000E+00
  0.00000000E+00  0.00000000E+00  0.00000000E+00
  0.00000000E+00  0.00000000E+00  0.00000000E+00
  0.00000000E+00  0.00000000E+00  0.00000000E+00
  0.00000000E+00  0.00000000E+00  0.00000000E+00
  0.00000000E+00  0.00000000E+00  0.00000000E+00
  0.00000000E+00  0.00000000E+00  0.00000000E+00
  0.00000000E+00  0.00000000E+00  0.00000000E+00
  0.00000000E+00  0.00000000E+00  0.00000000E+00
  0.00000000E+00  0.00000000E+00  0.00000000E+00
  0.00000000E+00  0.00000000E+00  0.00000000E+00
  0.00000000E+00  0.00000000E+00  0.00000000E+00
  0.00000000E+00  0.00000000E+00  0.00000000E+00
  0.00000000E+00  0.00000000E+00  0.00000000E+00
  0.00000000E+00  0.00000000E+00  0.00000000E+00
  0.00000000E+00  0.00000000E+00  0.00000000E+00
  0.00000000E+00  0.00000000E+00  0.00000000E+00
  0.00000000E+00  0.00000000E+00  0.00000000E+00
  0.00000000E+00  0.00000000E+00  0.00000000E+00
  0.00000000E+00  0.00000000E+00  0.00000000E+00
  0.00000000E+00  0.00000000E+00  0.00000000E+00
  0.00000000E+00  0.00000000E+00  0.00000000E+00
  0.00000000E+00  0.00000000E+00  0.00000000E+00
  0.00000000E+00  0.00000000E+00  0.00000000E+00
  0.00000000E+00  0.00000000E+00  0.00000000E+00
  0.00000000E+00  0.00000000E+00  0.00000000E+00
  0.00000000E+00  0.00000000E+00  0.00000000E+00
  0.00000000E+00  0.00000000E+00  0.00000000E+00
  0.00000000E+00  0.00000000E+00  0.00000000E+00
  0.00000000E+00  0.00000000E+00  0.00000000E+00
  0.00000000E+00  0.00000000E+00  0.00000000E+00
  0.00000000E+00  0.00000000E+00  0.00000000E+00
  0.00000000E+00  0.00000000E+00  0.00000000E+00
  0.00000000E+00  0.00000000E+00  0.00000000E+00
  0.00000000E+00  0.00000000E+00  0.00000000E+00
  0.00000000E+00  0.00000000E+00  0.00000000E+00
  0.00000000E+00  0.00000000E+00  0.00000000E+00
  0.00000000E+00  0.00000000E+00  0.00000000E+00
  0.00000000E+00  0.00000000E+00  0.00000000E+00
  0.00000000E+00  0.00000000E+00  0.00000000E+00
  0.00000000E+00  0.00000000E+00  0.00000000E+00
  0.00000000E+00  0.00000000E+00  0.00000000E+00
  0.00000000E+00  0.00000000E+00  0.00000000E+00
  0.00000000E+00  0.00000000E+00  0.00000000E+00
  0.00000000E+00  0.00000000E+00  0.00000000E+00
  0.00000000E+00  0.00000000E+00  0.00000000E+00
  0.00000000E+00  0.00000000E+00  0.00000000E+00
  0.00000000E+00  0.00000000E+00  0.00000000E+00
  0.00000000E+00  0.00000000E+00  0.00000000E+00
  0.00000000E+00  0.00000000E+00  0.00000000E+00
  0.00000000E+00  0.00000000E+00  0.00000000E+00
  0.00000000E+00  0.00000000E+00  0.00000000E+00
  0.00000000E+00  0.00000000E+00  0.00000000E+00
  0.00000000E+00  0.00000000E+00  0.00000000E+00
  0.00000000E+00  0.00000000E+00  0.00000000E+00
  0.00000000E+00  0.00000000E+00  0.00000000E+00
  0.00000000E+00  0.00000000E+00  0.00000000E+00
  0.00000000E+00  0.00000000E+00  0.00000000E+00
  0.00000000E+00  0.00000000E+00  0.00000000E+00
  0.00000000E+00  0.00000000E+00  0.00000000E+00
  0.00000000E+00  0.00000000E+00  0.00000000E+00
  0.00000000E+00  0.00000000E+00  0.00000000E+00
  0.00000000E+00  0.00000000E+00  0.00000000E+00
  0.00000000E+00  0.00000000E+00  0.00000000E+00
  0.00000000E+00  0.00000000E+00  0.00000000E+00
  0.00000000E+00  0.00000000E+00  0.00000000E+00
