kk
 1.0000000000000000
     0.0000000000000000   10.9373336906932952   10.9373336906932952
    10.9373336906932952    0.0000000000000000   10.9373336906932952
    10.9373336906932952   10.9373336906932952    0.0000000000000000
 128
Direct
  0.9951134288222406  0.0042285997804639  0.0132392270095936
  0.2561258563366361  0.9940978739621261  0.9864410642184289
  0.4971919785588710  0.9980862665806797  0.9950082384719722
  0.7627771829270134  0.9954666900942323  0.9862632707716116
  0.9926459861667228  0.2549996081206246  0.9887810290354049
  0.2545606358604852  0.2528605463131206  0.9892538622112838
  0.5003635757913152  0.2569964175649393  0.9895921106887252
  0.7421138197620185  0.2500001560628808  0.0046742751005613
  0.9963509407982680  0.5088578719391915  0.9850989495208095
  0.2512547613957560  0.5055442164649578  0.9964403942555204
  0.5021658449890907  0.5094715891594619  0.0042228615635960
  0.7548004298963679  0.4979678080822783  0.9960140117982434
  0.0114552697766565  0.7468378816289478  0.9852746372115699
  0.2452368850130245  0.7505664073754718  0.9918341267317563
  0.4994201660989850  0.7442932228583302  0.9997686427468842
  0.7437127136461070  0.7519355749957873  0.0117870081586109
  0.9882011346906607  0.9990253386086475  0.2618392966546469
  0.2432463926739191  0.0015415799880951  0.2490179900894872
  0.4928065313560029  0.9963407006145498  0.2641472885001258
  0.7487316182268503  0.9911334859354388  0.2551058355263249
  0.0118767972945148  0.2420428868706606  0.2536690857741394
  0.2450187341508278  0.2563479440318657  0.2407769453139541
  0.4988044594372490  0.2347240542401320  0.2542201307871614
  0.7563226632520016  0.2389261713250526  0.2551423332561364
  0.0032334222059626  0.5020134419907826  0.2454671976829183
  0.2585766729447851  0.4996305354756066  0.2587683295165915
  0.5040892342650024  0.4947103398575612  0.2507836903702242
  0.7550525067564332  0.5059684399133139  0.2427843967948343
  0.9942064825400894  0.7422640938763099  0.2475440000924946
  0.2572270752292826  0.7537003244525777  0.2451672651852331
  0.4938862605475360  0.7405017184998260  0.2621500102426832
  0.7485483221543202  0.7445515559623329  0.2560170640590754
  0.9933587141788006  0.0130663322070890  0.5021734676589550
  0.2493837567372211  0.9913447901204615  0.5126099654823941
  0.4967767225919485  0.9884680272931343  0.4930396194931262
  0.7427762249235187  0.0020912911952870  0.4938578648356989
  0.9977518895557094  0.2483707380374856  0.4980180968617062
  0.2473724911259237  0.2531443196129318  0.5068920613702286
  0.4937530409855945  0.2474135981728858  0.5130128517593520
  0.7402913308989874  0.2583164632768809  0.4963855196432728
  0.0003927740781700  0.5078553817911030  0.4898728732090162
  0.2386770609340092  0.5070172387484575  0.5074218036196116
  0.4920558325074560  0.4990815233293192  0.5084855128074393
  0.7408676298573758  0.4915011370563695  0.5051687827383430
  0.9984570316421576  0.7513343553364823  0.4928230447501196
  0.2509969477912055  0.7457263368618259  0.5025678578585668
  0.4864760799955091  0.7623137763484300  0.4875625626177357
  0.7480473392486449  0.7395847775225545  0.5113541697536862
  0.9913256173720837  0.0162434021910804  0.7484614152960708
  0.2483257898339089  0.9941472188064399  0.7467150196395642
  0.4988364720459619  0.0025738006043865  0.7510899088256701
  0.7425668416215803  0.9971266131373111  0.7556830155395672
  0.9958846059166023  0.2542841836026312  0.7510585453869668
  0.2368594066933120  0.2563056890364676  0.7495337064866321
  0.5071932151570254  0.2409823546884255  0.7513806158215867
  0.7593799079506858  0.2555020773293070  0.7404343237569414
  0.0009805763992845  0.4998743771740725  0.7507823615379378
  0.2468328153682636  0.4978403974105425  0.7662752826915099
  0.5118490647928705  0.4899203877698318  0.7528521625591380
  0.7533439963306963  0.5057401722103088  0.7474631964232327
  0.9956193902206064  0.7477795593655846  0.7515390729360633
  0.2452813462482319  0.7601978096421882  0.7424458704744290
  0.5024034197732515  0.7541493636328093  0.7392105995852912
  0.7532519258402651  0.7446927476727637  0.7497220659824818
  0.0727522853737314  0.0661878446055292  0.0590416171082280
  0.3211551044230159  0.0569642201043605  0.0672756822354211
  0.5572315457096877  0.0570550958341200  0.0710766025997306
  0.8141447309729659  0.0601955288586923  0.0561166670701745
  0.0648213717019969  0.3106288438620792  0.0705528082426867
  0.3125622070287681  0.2986656897854383  0.0608810515469143
  0.5734098259100263  0.3137148140341204  0.0538209578133017
  0.8162772206734026  0.3141366939108349  0.0621945951541781
  0.0681996800385856  0.5644442914438494  0.0627050228359390
  0.3226753623369951  0.5555365218748525  0.0643642024263173
  0.5683551962070936  0.5599720326408766  0.0660819942488278
  0.8074389786285586  0.5564304111975504  0.0592113661032918
  0.0612060254084197  0.8113091665576104  0.0635830251523182
  0.3105586576145318  0.7965929577598210  0.0657128266306317
  0.5678605281187277  0.8058908827505262  0.0726469846860442
  0.8149509791692890  0.8133835137944134  0.0665364879717364
  0.0522939790511165  0.0582394769885949  0.3170803451619543
  0.3204302430788036  0.0564987467738184  0.3188141140860391
  0.5683058198056227  0.0519918815776834  0.3074797491227963
  0.8068363215536847  0.0575610692420824  0.3176524003751496
  0.0641123263349902  0.3020929115136214  0.3162887485420002
  0.3173308609886966  0.3057724020524546  0.3250398772743611
  0.5697884498373803  0.3036990864281845  0.3024268542172922
  0.8028608192234465  0.3190015925826182  0.3173808123471372
  0.0561338066780290  0.5653850629590742  0.3256912908782658
  0.3172689159777602  0.5601124483670101  0.3100612406433906
  0.5491495795490107  0.5565320138486999  0.3209626303478030
  0.8136692886537777  0.5600668547546214  0.3233018408691662
  0.0583184966927291  0.8139816557485765  0.3134266865197964
  0.3095253338891097  0.8117626932008937  0.3149979652848836
  0.5693486972112654  0.8095600478188296  0.3098665094638136
  0.7940911098603314  0.8125929197542849  0.3319191425776157
  0.0663788611976204  0.0664933981230455  0.5595261393610578
  0.3168032924371755  0.0646678263678987  0.5689444078854862
  0.5579338896554692  0.0628772619197591  0.5640067013712293
  0.8145987478204560  0.0620375229481653  0.5665474417625113
  0.0607723486115668  0.3104444639149739  0.5661881179330377
  0.3144007774510108  0.3096101538214521  0.5616424152701909
  0.5595246406263540  0.3202942258655837  0.5616850714054684
  0.8191903952291844  0.3169366112853644  0.5659847891339361
  0.0519332082022314  0.5671429619801769  0.5639006209618566
  0.3159845732958017  0.5550039670155849  0.5669493038262207
  0.5573503413028257  0.5654937721172379  0.5731844403815572
  0.8050577133199929  0.5545048872467305  0.5648429432276397
  0.0510663226391438  0.8097452645392932  0.5754895508528165
  0.3121187868763637  0.8003682819907283  0.5625896734277113
  0.5625646558692361  0.8088702714324680  0.5576930419729109
  0.8173340085962960  0.8128412036041157  0.5643672771227395
  0.0687902983127128  0.0476694466995697  0.8163894394263472
  0.3162738830606424  0.0611435617136822  0.8104201707246130
  0.5540615081711815  0.0730805093924202  0.8105194233514973
  0.8046947785301517  0.0597501336913794  0.8122719834945716
  0.0611213935251204  0.3219565301443553  0.8104823197135910
  0.3194384167280768  0.3112852432369846  0.8097788689830034
  0.5627590573670638  0.3167584042503501  0.8053465886611977
  0.8139170775716575  0.3023884700004330  0.8083729010715007
  0.0617666575393447  0.5593386995886334  0.8066925091973942
  0.3177691740187655  0.5586701190438272  0.8126158927216651
  0.5545718249730774  0.5585728613346002  0.8194897985751916
  0.8201130337818378  0.5568219914927112  0.8120026174412966
  0.0691242494688602  0.8123964114776452  0.8134657141505144
  0.3146884555739864  0.8139155743394254  0.8105361077940122
  0.5695760384256571  0.8100798525442494  0.8140718988271459
  0.8087574012586931  0.8111793078574365  0.8062207902633413
