kk                                      
   1.00000000000000     
     0.0000000000000000   10.9373336906932952   10.9373336906932952
    10.9373336906932952    0.0000000000000000   10.9373336906932952
    10.9373336906932952   10.9373336906932952    0.0000000000000000
   Si
   128
Direct
  0.0112885191749328  0.9921634525525178  0.9982692688766619
  0.2482556658698201  0.9994119969830351  0.9934708856536858
  0.4985776664907959  0.0040119223430679  0.0014233081015149
  0.7412436088364345  0.0049234881792657  0.9910430606850085
  0.0020590930936706  0.2484358534923601  0.9982369235142556
  0.2360360590539941  0.2588232471255836  0.9996375631682781
  0.4937750378635712  0.2508654591501696  0.9985286104459945
  0.7428511680733365  0.2509946135727574  0.0081790811084161
  0.0036594834928394  0.5054053231633304  0.9954251754451491
  0.2550303654469204  0.5137470146279952  0.9961119359319071
  0.5019676426385047  0.5064990825460569  0.9966377415555598
  0.7348336160176103  0.5033433463294585  0.9975896495293952
  0.9950091597823132  0.7592004495443092  0.9938438366139408
  0.2529845147918053  0.7472185400417928  0.9979854723270876
  0.4998700219560988  0.7488202726043909  0.9964459599008819
  0.7476050342721976  0.7409825619339401  0.0016910669169548
  0.9956486716053874  0.0034836103695071  0.2491496747791402
  0.2504105366983396  0.9919846695802121  0.2531087610052367
  0.5230505099044436  0.9908446011736203  0.2483605121298353
  0.7479595182978329  0.9991965018437625  0.2408003517249639
  0.9912519619603728  0.2420221202721393  0.2565117397165224
  0.2525334711647602  0.2551159113448449  0.2449186845989573
  0.5005912108259665  0.2489200369136029  0.2556651561853371
  0.7484989451262436  0.2632523104512572  0.2454109106227449
  0.9938162289722925  0.5010778002581802  0.2545871777088280
  0.2613375812154359  0.4947299803216936  0.2459302926042142
  0.5024968580718792  0.4990762474116721  0.2451974347093397
  0.7527498480900405  0.4992097991136291  0.2377433855540545
  0.0077653290987314  0.7438712040862185  0.2561040273415927
  0.2486908455096852  0.7599239788398506  0.2511657879634797
  0.5024477524636097  0.7447727042475023  0.2475987397524193
  0.7527541789125110  0.7380868293104896  0.2515634869463739
  0.0011024831544972  0.9836120154350283  0.5037373657589583
  0.2427641204451589  0.9982216956606607  0.5066395906570023
  0.5040491915949161  0.9909816292170603  0.5074472356613242
  0.7499822819633266  0.0116928756858456  0.5051798581575540
  0.9991002987768951  0.2572616092498095  0.4903595158541094
  0.2471948374683350  0.2503723553888548  0.5055737550665640
  0.5041940185713187  0.2423411621793363  0.4995789785518596
  0.7614725320282218  0.2384973769914964  0.4998503199159572
  0.9924000567141533  0.4947668968843502  0.5020546250656679
  0.2443113057631763  0.4935933237995513  0.5163080786601881
  0.4930914561746178  0.5025214771091058  0.5020727597793027
  0.7533809327784482  0.4938162261070786  0.4946720628567860
  0.0081905593714851  0.7553846371717157  0.4980565455676782
  0.2601764631988246  0.7428017903265669  0.4957897255730757
  0.4880750565391025  0.7510470450759854  0.5034574765843161
  0.7530967985365962  0.7552834273421141  0.4917405450874810
  0.0018779796280555  0.0002634315040311  0.7531773253759155
  0.2487646658036553  0.0007975086260146  0.7534323329305295
  0.5026120808551582  0.9996919857396236  0.7466075932854608
  0.7484190050126358  0.0094360423346345  0.7444488505044760
  0.0001017442412490  0.2387322681270874  0.7542739169915009
  0.2462560963730525  0.2360726860209397  0.7556167429450511
  0.4990307027909466  0.2626396806931055  0.7460281453327582
  0.7660320464830903  0.2383483097175940  0.7505503848591530
  0.0006618132400149  0.5025938264294680  0.7432242116605821
  0.2588536670286885  0.5032396459074491  0.7506966349597661
  0.4870646274569665  0.5168325497071322  0.7478621385168225
  0.7524080295587652  0.4981927136024709  0.7452109979508066
  0.0104332053942571  0.7414542859031670  0.7410052669613378
  0.2583053199794278  0.7452882513891481  0.7554603722501696
  0.5011353681395292  0.7493488530133874  0.7505568292750340
  0.7424716232462885  0.7420093635742191  0.7538070659930369
  0.0632689219959701  0.0537321673461335  0.0532652738086412
  0.3033963195668719  0.0665612120234655  0.0671398523093600
  0.5615072358859337  0.0640524840720857  0.0536863363359430
  0.8080132960339839  0.0641286568768891  0.0688187521990926
  0.0477402940628338  0.3187355569875052  0.0609303683012499
  0.3023380457088436  0.3084962308506647  0.0648757162080287
  0.5618069478718724  0.3223924226540902  0.0653049838511990
  0.8171617660855048  0.2980844939473570  0.0655959682459866
  0.0572542947257872  0.5743494330902692  0.0570964569818955
  0.3160163077807212  0.5657084668581192  0.0516293850331309
  0.5625352000570132  0.5598771948827945  0.0579735356471218
  0.8072814182601320  0.5617628877712022  0.0624277354904663
  0.0689972206284395  0.8077286998843292  0.0602448382516059
  0.3015881788500394  0.8142970704785597  0.0666240657738015
  0.5650658556934047  0.8002290330270156  0.0688302081494925
  0.8120137559019796  0.7962370570893000  0.0712805836768098
  0.0647831184477994  0.0612945442897157  0.3145800363909714
  0.3092738298946429  0.0620849683459213  0.3124972478096737
  0.5670755289354616  0.0561115926473903  0.3100600750666658
  0.8172501272334713  0.0633962703707383  0.3065332287715918
  0.0602524543941030  0.3148569996850057  0.3073405594957492
  0.3080062237623409  0.3182465773340297  0.3061576600454643
  0.5582209852005136  0.3117264958037325  0.3171697080217868
  0.8122169216767148  0.3167611720068138  0.3138056238091238
  0.0588171192358615  0.5620105710124079  0.3080089103867394
  0.3089844004597069  0.5633443680471544  0.3171119889179579
  0.5645147973983455  0.5629937257764155  0.3215295723847831
  0.8009047047110869  0.5664694829268910  0.3119837893149295
  0.0679013547677840  0.8052090270792220  0.3130541689643707
  0.3353753635577021  0.8017736664344710  0.3074740252191503
  0.5535729987821725  0.8166217528987971  0.3013081878655086
  0.8213337242158545  0.8205616663474444  0.3125362893857613
  0.0602865317702310  0.0703007042518919  0.5502186609687882
  0.3098402376660303  0.0537731449071046  0.5665776954675152
  0.5689712437500134  0.0561398691224468  0.5595284373075842
  0.8204816773955841  0.0615323982054790  0.5646423869669661
  0.0600355945936073  0.3236931731188122  0.5582803351302985
  0.3097039709950735  0.3167288254964049  0.5731608629451230
  0.5699981853026159  0.3087339692544688  0.5638923450594291
  0.8095610940964875  0.3037449083594979  0.5731596285401750
  0.0583339547456703  0.5550746906488158  0.5643039560032719
  0.3102397270647756  0.5640837753711807  0.5648974121754122
  0.5613973174975584  0.5522231831410025  0.5672205650073892
  0.8116730412481843  0.5630139113683441  0.5655848173578946
  0.0652959442549701  0.8032914488654157  0.5677081248948141
  0.3044905021713404  0.8166992850492107  0.5725646717435140
  0.5692507629314463  0.8040036291479851  0.5626940073640370
  0.8140738528653060  0.8092512012506461  0.5645546543190605
  0.0649573715811371  0.0583183623298140  0.8236222573164156
  0.3113618972745940  0.0571699855855954  0.8135453292840467
  0.5533728848112744  0.0738412181871198  0.8020238917373419
  0.8000191140385837  0.0671710764047830  0.8206281401103510
  0.0601106398930540  0.3075798655328725  0.8061879644490446
  0.3218831123921646  0.3139596332967898  0.8049206313351220
  0.5612631299928381  0.3125194291974509  0.8098556135941450
  0.8194911791435047  0.3043206313924003  0.8175776486943107
  0.0520811888544372  0.5661894646436778  0.8100200661579038
  0.3105530005251822  0.5677968565159262  0.8156423164877893
  0.5639397153859207  0.5685223281796468  0.8024671467788522
  0.8073008578082650  0.5634116964496698  0.8137799257422387
  0.0646473238505152  0.8077035212901720  0.8074938544379151
  0.3068158443844737  0.8117582076801568  0.8168111450508206
  0.5543562823612831  0.8221231759466647  0.8137015211815850
  0.8163175996335141  0.8061316346683398  0.8172470882896405
 
  0.00000000E+00  0.00000000E+00  0.00000000E+00
  0.00000000E+00  0.00000000E+00  0.00000000E+00
  0.00000000E+00  0.00000000E+00  0.00000000E+00
  0.00000000E+00  0.00000000E+00  0.00000000E+00
  0.00000000E+00  0.00000000E+00  0.00000000E+00
  0.00000000E+00  0.00000000E+00  0.00000000E+00
  0.00000000E+00  0.00000000E+00  0.00000000E+00
  0.00000000E+00  0.00000000E+00  0.00000000E+00
  0.00000000E+00  0.00000000E+00  0.00000000E+00
  0.00000000E+00  0.00000000E+00  0.00000000E+00
  0.00000000E+00  0.00000000E+00  0.00000000E+00
  0.00000000E+00  0.00000000E+00  0.00000000E+00
  0.00000000E+00  0.00000000E+00  0.00000000E+00
  0.00000000E+00  0.00000000E+00  0.00000000E+00
  0.00000000E+00  0.00000000E+00  0.00000000E+00
  0.00000000E+00  0.00000000E+00  0.00000000E+00
  0.00000000E+00  0.00000000E+00  0.00000000E+00
  0.00000000E+00  0.00000000E+00  0.00000000E+00
  0.00000000E+00  0.00000000E+00  0.00000000E+00
  0.00000000E+00  0.00000000E+00  0.00000000E+00
  0.00000000E+00  0.00000000E+00  0.00000000E+00
  0.00000000E+00  0.00000000E+00  0.00000000E+00
  0.00000000E+00  0.00000000E+00  0.00000000E+00
  0.00000000E+00  0.00000000E+00  0.00000000E+00
  0.00000000E+00  0.00000000E+00  0.00000000E+00
  0.00000000E+00  0.00000000E+00  0.00000000E+00
  0.00000000E+00  0.00000000E+00  0.00000000E+00
  0.00000000E+00  0.00000000E+00  0.00000000E+00
  0.00000000E+00  0.00000000E+00  0.00000000E+00
  0.00000000E+00  0.00000000E+00  0.00000000E+00
  0.00000000E+00  0.00000000E+00  0.00000000E+00
  0.00000000E+00  0.00000000E+00  0.00000000E+00
  0.00000000E+00  0.00000000E+00  0.00000000E+00
  0.00000000E+00  0.00000000E+00  0.00000000E+00
  0.00000000E+00  0.00000000E+00  0.00000000E+00
  0.00000000E+00  0.00000000E+00  0.00000000E+00
  0.00000000E+00  0.00000000E+00  0.00000000E+00
  0.00000000E+00  0.00000000E+00  0.00000000E+00
  0.00000000E+00  0.00000000E+00  0.00000000E+00
  0.00000000E+00  0.00000000E+00  0.00000000E+00
  0.00000000E+00  0.00000000E+00  0.00000000E+00
  0.00000000E+00  0.00000000E+00  0.00000000E+00
  0.00000000E+00  0.00000000E+00  0.00000000E+00
  0.00000000E+00  0.00000000E+00  0.00000000E+00
  0.00000000E+00  0.00000000E+00  0.00000000E+00
  0.00000000E+00  0.00000000E+00  0.00000000E+00
  0.00000000E+00  0.00000000E+00  0.00000000E+00
  0.00000000E+00  0.00000000E+00  0.00000000E+00
  0.00000000E+00  0.00000000E+00  0.00000000E+00
  0.00000000E+00  0.00000000E+00  0.00000000E+00
  0.00000000E+00  0.00000000E+00  0.00000000E+00
  0.00000000E+00  0.00000000E+00  0.00000000E+00
  0.00000000E+00  0.00000000E+00  0.00000000E+00
  0.00000000E+00  0.00000000E+00  0.00000000E+00
  0.00000000E+00  0.00000000E+00  0.00000000E+00
  0.00000000E+00  0.00000000E+00  0.00000000E+00
  0.00000000E+00  0.00000000E+00  0.00000000E+00
  0.00000000E+00  0.00000000E+00  0.00000000E+00
  0.00000000E+00  0.00000000E+00  0.00000000E+00
  0.00000000E+00  0.00000000E+00  0.00000000E+00
  0.00000000E+00  0.00000000E+00  0.00000000E+00
  0.00000000E+00  0.00000000E+00  0.00000000E+00
  0.00000000E+00  0.00000000E+00  0.00000000E+00
  0.00000000E+00  0.00000000E+00  0.00000000E+00
  0.00000000E+00  0.00000000E+00  0.00000000E+00
  0.00000000E+00  0.00000000E+00  0.00000000E+00
  0.00000000E+00  0.00000000E+00  0.00000000E+00
  0.00000000E+00  0.00000000E+00  0.00000000E+00
  0.00000000E+00  0.00000000E+00  0.00000000E+00
  0.00000000E+00  0.00000000E+00  0.00000000E+00
  0.00000000E+00  0.00000000E+00  0.00000000E+00
  0.00000000E+00  0.00000000E+00  0.00000000E+00
  0.00000000E+00  0.00000000E+00  0.00000000E+00
  0.00000000E+00  0.00000000E+00  0.00000000E+00
  0.00000000E+00  0.00000000E+00  0.00000000E+00
  0.00000000E+00  0.00000000E+00  0.00000000E+00
  0.00000000E+00  0.00000000E+00  0.00000000E+00
  0.00000000E+00  0.00000000E+00  0.00000000E+00
  0.00000000E+00  0.00000000E+00  0.00000000E+00
  0.00000000E+00  0.00000000E+00  0.00000000E+00
  0.00000000E+00  0.00000000E+00  0.00000000E+00
  0.00000000E+00  0.00000000E+00  0.00000000E+00
  0.00000000E+00  0.00000000E+00  0.00000000E+00
  0.00000000E+00  0.00000000E+00  0.00000000E+00
  0.00000000E+00  0.00000000E+00  0.00000000E+00
  0.00000000E+00  0.00000000E+00  0.00000000E+00
  0.00000000E+00  0.00000000E+00  0.00000000E+00
  0.00000000E+00  0.00000000E+00  0.00000000E+00
  0.00000000E+00  0.00000000E+00  0.00000000E+00
  0.00000000E+00  0.00000000E+00  0.00000000E+00
  0.00000000E+00  0.00000000E+00  0.00000000E+00
  0.00000000E+00  0.00000000E+00  0.00000000E+00
  0.00000000E+00  0.00000000E+00  0.00000000E+00
  0.00000000E+00  0.00000000E+00  0.00000000E+00
  0.00000000E+00  0.00000000E+00  0.00000000E+00
  0.00000000E+00  0.00000000E+00  0.00000000E+00
  0.00000000E+00  0.00000000E+00  0.00000000E+00
  0.00000000E+00  0.00000000E+00  0.00000000E+00
  0.00000000E+00  0.00000000E+00  0.00000000E+00
  0.00000000E+00  0.00000000E+00  0.00000000E+00
  0.00000000E+00  0.00000000E+00  0.00000000E+00
  0.00000000E+00  0.00000000E+00  0.00000000E+00
  0.00000000E+00  0.00000000E+00  0.00000000E+00
  0.00000000E+00  0.00000000E+00  0.00000000E+00
  0.00000000E+00  0.00000000E+00  0.00000000E+00
  0.00000000E+00  0.00000000E+00  0.00000000E+00
  0.00000000E+00  0.00000000E+00  0.00000000E+00
  0.00000000E+00  0.00000000E+00  0.00000000E+00
  0.00000000E+00  0.00000000E+00  0.00000000E+00
  0.00000000E+00  0.00000000E+00  0.00000000E+00
  0.00000000E+00  0.00000000E+00  0.00000000E+00
  0.00000000E+00  0.00000000E+00  0.00000000E+00
  0.00000000E+00  0.00000000E+00  0.00000000E+00
  0.00000000E+00  0.00000000E+00  0.00000000E+00
  0.00000000E+00  0.00000000E+00  0.00000000E+00
  0.00000000E+00  0.00000000E+00  0.00000000E+00
  0.00000000E+00  0.00000000E+00  0.00000000E+00
  0.00000000E+00  0.00000000E+00  0.00000000E+00
  0.00000000E+00  0.00000000E+00  0.00000000E+00
  0.00000000E+00  0.00000000E+00  0.00000000E+00
  0.00000000E+00  0.00000000E+00  0.00000000E+00
  0.00000000E+00  0.00000000E+00  0.00000000E+00
  0.00000000E+00  0.00000000E+00  0.00000000E+00
  0.00000000E+00  0.00000000E+00  0.00000000E+00
  0.00000000E+00  0.00000000E+00  0.00000000E+00
  0.00000000E+00  0.00000000E+00  0.00000000E+00
  0.00000000E+00  0.00000000E+00  0.00000000E+00
  0.00000000E+00  0.00000000E+00  0.00000000E+00
