kk
 1.0000000000000000
     0.0000000000000000   10.9373336906932952   10.9373336906932952
    10.9373336906932952    0.0000000000000000   10.9373336906932952
    10.9373336906932952   10.9373336906932952    0.0000000000000000
 128
Direct
  0.0112885191749322  0.9921634525525156  0.9982692688766598
  0.2482556658698181  0.9994119969830376  0.9934708856536890
  0.4985776664907933  0.0040119223430689  0.0014233081015150
  0.7412436088364344  0.0049234881792691  0.9910430606850111
  0.0020590930936681  0.2484358534923571  0.9982369235142556
  0.2360360590539928  0.2588232471255826  0.9996375631682785
  0.4937750378635708  0.2508654591501672  0.9985286104459924
  0.7428511680733337  0.2509946135727575  0.0081790811084148
  0.0036594834928374  0.5054053231633269  0.9954251754451475
  0.2550303654469224  0.5137470146279973  0.9961119359319095
  0.5019676426385058  0.5064990825460599  0.9966377415555592
  0.7348336160176094  0.5033433463294604  0.9975896495293931
  0.9950091597823164  0.7592004495443122  0.9938438366139394
  0.2529845147918034  0.7472185400417927  0.9979854723270847
  0.4998700219560958  0.7488202726043920  0.9964459599008849
  0.7476050342721997  0.7409825619339420  0.0016910669169581
  0.9956486716053877  0.0034836103695096  0.2491496747791383
  0.2504105366983407  0.9919846695802093  0.2531087610052366
  0.5230505099044432  0.9908446011736234  0.2483605121298348
  0.7479595182978335  0.9991965018437653  0.2408003517249660
  0.9912519619603745  0.2420221202721363  0.2565117397165205
  0.2525334711647569  0.2551159113448463  0.2449186845989552
  0.5005912108259691  0.2489200369136041  0.2556651561853399
  0.7484989451262448  0.2632523104512591  0.2454109106227433
  0.9938162289722919  0.5010778002581830  0.2545871777088283
  0.2613375812154328  0.4947299803216963  0.2459302926042109
  0.5024968580718783  0.4990762474116741  0.2451974347093372
  0.7527498480900415  0.4992097991136301  0.2377433855540564
  0.0077653290987293  0.7438712040862210  0.2561040273415957
  0.2486908455096884  0.7599239788398523  0.2511657879634767
  0.5024477524636073  0.7447727042475047  0.2475987397524168
  0.7527541789125108  0.7380868293104893  0.2515634869463770
  0.0011024831544953  0.9836120154350304  0.5037373657589553
  0.2427641204451562  0.9982216956606638  0.5066395906569988
  0.5040491915949185  0.9909816292170633  0.5074472356613267
  0.7499822819633286  0.0116928756858462  0.5051798581575536
  0.9991002987768945  0.2572616092498071  0.4903595158541087
  0.2471948374683319  0.2503723553888577  0.5055737550665667
  0.5041940185713213  0.2423411621793376  0.4995789785518596
  0.7614725320282230  0.2384973769914995  0.4998503199159606
  0.9924000567141507  0.4947668968843510  0.5020546250656646
  0.2443113057631792  0.4935933237995512  0.5163080786601908
  0.4930914561746156  0.5025214771091040  0.5020727597793025
  0.7533809327784455  0.4938162261070797  0.4946720628567891
  0.0081905593714820  0.7553846371717154  0.4980565455676816
  0.2601764631988270  0.7428017903265680  0.4957897255730728
  0.4880750565391044  0.7510470450759861  0.5034574765843183
  0.7530967985365937  0.7552834273421155  0.4917405450874807
  0.0018779796280590  0.0002634315040302  0.7531773253759180
  0.2487646658036583  0.0007975086260142  0.7534323329305266
  0.5026120808551570  0.9996919857396217  0.7466075932854629
  0.7484190050126348  0.0094360423346327  0.7444488505044784
  0.0001017442412466  0.2387322681270853  0.7542739169914988
  0.2462560963730498  0.2360726860209377  0.7556167429450521
  0.4990307027909453  0.2626396806931069  0.7460281453327605
  0.7660320464830899  0.2383483097175929  0.7505503848591496
  0.0006618132400137  0.5025938264294673  0.7432242116605798
  0.2588536670286906  0.5032396459074476  0.7506966349597697
  0.4870646274569684  0.5168325497071289  0.7478621385168194
  0.7524080295587657  0.4981927136024693  0.7452109979508088
  0.0104332053942569  0.7414542859031692  0.7410052669613388
  0.2583053199794266  0.7452882513891477  0.7554603722501723
  0.5011353681395271  0.7493488530133906  0.7505568292750350
  0.7424716232462896  0.7420093635742194  0.7538070659930357
  0.0632689219959726  0.0537321673461357  0.0532652738086443
  0.3033963195668690  0.0665612120234678  0.0671398523093595
  0.5615072358859331  0.0640524840720881  0.0536863363359407
  0.8080132960339859  0.0641286568768924  0.0688187521990893
  0.0477402940628320  0.3187355569875069  0.0609303683012479
  0.3023380457088446  0.3084962308506641  0.0648757162080265
  0.5618069478718741  0.3223924226540887  0.0653049838511972
  0.8171617660855053  0.2980844939473557  0.0655959682459856
  0.0572542947257850  0.5743494330902676  0.0570964569818942
  0.3160163077807212  0.5657084668581212  0.0516293850331306
  0.5625352000570115  0.5598771948827960  0.0579735356471185
  0.8072814182601303  0.5617628877712056  0.0624277354904667
  0.0689972206284362  0.8077286998843306  0.0602448382516058
  0.3015881788500359  0.8142970704785626  0.0666240657738043
  0.5650658556934038  0.8002290330270176  0.0688302081494959
  0.8120137559019819  0.7962370570892977  0.0712805836768099
  0.0647831184477990  0.0612945442897151  0.3145800363909698
  0.3092738298946456  0.0620849683459220  0.3124972478096715
  0.5670755289354629  0.0561115926473918  0.3100600750666644
  0.8172501272334731  0.0633962703707412  0.3065332287715890
  0.0602524543941061  0.3148569996850045  0.3073405594957523
  0.3080062237623388  0.3182465773340294  0.3061576600454612
  0.5582209852005149  0.3117264958037342  0.3171697080217876
  0.8122169216767141  0.3167611720068162  0.3138056238091252
  0.0588171192358600  0.5620105710124068  0.3080089103867387
  0.3089844004597050  0.5633443680471550  0.3171119889179612
  0.5645147973983451  0.5629937257764139  0.3215295723847811
  0.8009047047110884  0.5664694829268901  0.3119837893149323
  0.0679013547677860  0.8052090270792236  0.3130541689643671
  0.3353753635577029  0.8017736664344730  0.3074740252191505
  0.5535729987821715  0.8166217528987963  0.3013081878655096
  0.8213337242158519  0.8205616663474432  0.3125362893857588
  0.0602865317702337  0.0703007042518929  0.5502186609687870
  0.3098402376660299  0.0537731449071040  0.5665776954675138
  0.5689712437500131  0.0561398691224482  0.5595284373075859
  0.8204816773955875  0.0615323982054801  0.5646423869669663
  0.0600355945936070  0.3236931731188101  0.5582803351302957
  0.3097039709950763  0.3167288254964050  0.5731608629451241
  0.5699981853026127  0.3087339692544710  0.5638923450594286
  0.8095610940964842  0.3037449083595012  0.5731596285401720
  0.0583339547456727  0.5550746906488186  0.5643039560032737
  0.3102397270647728  0.5640837753711779  0.5648974121754152
  0.5613973174975568  0.5522231831410042  0.5672205650073857
  0.8116730412481863  0.5630139113683419  0.5655848173578962
  0.0652959442549673  0.8032914488654139  0.5677081248948133
  0.3044905021713432  0.8166992850492095  0.5725646717435124
  0.5692507629314481  0.8040036291479870  0.5626940073640390
  0.8140738528653034  0.8092512012506490  0.5645546543190614
  0.0649573715811339  0.0583183623298146  0.8236222573164126
  0.3113618972745955  0.0571699855855987  0.8135453292840491
  0.5533728848112744  0.0738412181871169  0.8020238917373447
  0.8000191140385834  0.0671710764047839  0.8206281401103527
  0.0601106398930543  0.3075798655328738  0.8061879644490414
  0.3218831123921673  0.3139596332967908  0.8049206313351224
  0.5612631299928413  0.3125194291974481  0.8098556135941452
  0.8194911791435026  0.3043206313924032  0.8175776486943096
  0.0520811888544374  0.5661894646436750  0.8100200661579073
  0.3105530005251848  0.5677968565159246  0.8156423164877904
  0.5639397153859189  0.5685223281796473  0.8024671467788552
  0.8073008578082645  0.5634116964496706  0.8137799257422397
  0.0646473238505176  0.8077035212901703  0.8074938544379144
  0.3068158443844720  0.8117582076801597  0.8168111450508180
  0.5543562823612815  0.8221231759466665  0.8137015211815828
  0.8163175996335174  0.8061316346683419  0.8172470882896397
