kk                                      
   1.00000000000000     
     0.0000000000000000   10.9373336906932952   10.9373336906932952
    10.9373336906932952    0.0000000000000000   10.9373336906932952
    10.9373336906932952   10.9373336906932952    0.0000000000000000
   Si
   128
Direct
  0.9988284442588338  0.0044044165236983  0.9925470345188643
  0.2517765929594233  0.9921088289075612  0.0066337899068998
  0.4902542656367430  0.0058105978998597  0.0046622393051337
  0.7475928781497956  0.0146961593476149  0.9872454474497516
  0.0035580820246608  0.2462401774770484  0.0044216241092983
  0.2524146757391108  0.2509981565137878  0.9989743131053288
  0.4929655335399517  0.2436863571362267  0.0094833551094595
  0.7520493886075101  0.2453679232980193  0.0045202312830313
  0.0034851342916724  0.4876496719472314  0.0062312727842055
  0.2405054544777201  0.5062826098685704  0.9956666311781319
  0.4962543532749777  0.4950758158637925  0.0106384934623733
  0.7454205176104267  0.5020628701568199  0.0000186964310060
  0.9925070425517077  0.7437865754885564  0.0071664530799609
  0.2506756967439685  0.7573808376422235  0.9946849642276021
  0.5012141480213756  0.7476038347306968  0.0114914985932302
  0.7488388778158495  0.7376702759679006  0.0183891363918320
  0.9916407027272953  0.0109808456705238  0.2540957456191109
  0.2377639797202420  0.0191458931052679  0.2415617839636113
  0.4961061866760517  0.9961904332319662  0.2577861928264653
  0.7389444637884566  0.0094315043198634  0.2580067743242509
  0.0025288396960477  0.2527870897504201  0.2459472207435738
  0.2549593408052502  0.2495404669275487  0.2492881948311876
  0.5037908845816759  0.2429218123883601  0.2515207402299779
  0.7502596805924640  0.2461386902982952  0.2556960965770116
  0.0010511054722002  0.4966379830376511  0.2487559150093404
  0.2569723326398190  0.4980954298232803  0.2497478996319700
  0.4994027112659083  0.4932880622332974  0.2480936298027316
  0.7500302512260077  0.5016043894330977  0.2505762134800449
  0.9803179117465746  0.7504734211420327  0.2641399822438260
  0.2451368104292158  0.7502875064326915  0.2524164679929513
  0.5059332397251453  0.7515684814546759  0.2476043337470628
  0.7441074710401594  0.7496124232703139  0.2525442132573019
  0.9958683701745770  0.9963862788103839  0.5052641056387230
  0.2382898849283208  0.0028748818396949  0.5124844808465099
  0.5130098653336788  0.9879370349417869  0.5043687569639630
  0.7623194564352573  0.9960553691761831  0.4890117864448413
  0.0121630317693402  0.2377878147261825  0.5004398417186096
  0.2555946896550267  0.2508513834314456  0.4916705719975880
  0.4934404199733535  0.2423775327076925  0.5051897815045052
  0.7467425408200583  0.2511778014147410  0.5054114360573436
  0.0055566785009233  0.4957327155968585  0.4948898032767772
  0.2452783258731657  0.4924194475612396  0.5150489615343403
  0.4957498447238322  0.5000010944967030  0.5003961678929159
  0.7703032397863154  0.5080627716126216  0.4900847413995422
  0.9970475975185522  0.7401588694341115  0.5055992174273385
  0.2662158000957220  0.7453764140852428  0.4936393676218600
  0.5119436675953395  0.7357005023763037  0.4972366750883950
  0.7536514874441593  0.7508020076686819  0.4994240735657201
  0.0001813849885011  0.0013681764367206  0.7535692718580975
  0.2544574143466747  0.9953831825648933  0.7489755190949055
  0.5060386128806016  0.0020125462659450  0.7462593436857148
  0.7521443332494471  0.9889725684842006  0.7582341527841692
  0.0035574610446503  0.2551129072972955  0.7420009723565499
  0.2464285189051907  0.2578893361433998  0.7525408399570139
  0.4970382169130474  0.2526798770371528  0.7545840449959940
  0.7555438834005983  0.2519359794517797  0.7490825124399549
  0.0025060330689897  0.4825404017479400  0.7525725291391367
  0.2480738538585072  0.5029243076462606  0.7525276191087542
  0.5012903983916104  0.4946049528793139  0.7484320089274448
  0.7647279086707073  0.4848351556542383  0.7539080740753263
  0.0007754015256225  0.7441888825546812  0.7496372457313214
  0.2465188441155775  0.7487708150818690  0.7595401998982823
  0.5056989561313969  0.7424017247118471  0.7615607348966122
  0.7465530840557335  0.7489241400120576  0.7584162005142829
  0.0744488223153539  0.0620793317354824  0.0486869217767136
  0.3103834940823873  0.0693106339854452  0.0555634788647481
  0.5590220655515594  0.0601243027160621  0.0643720721416798
  0.8047758197277517  0.0649330593116915  0.0790042715714137
  0.0696148006389450  0.3073924444520841  0.0677729307976236
  0.3097037699083387  0.3170078611107812  0.0542597863108369
  0.5534060067557292  0.3165053475209092  0.0537869189236346
  0.8152181299945127  0.3066982240117326  0.0688675857989907
  0.0680587370113415  0.5674446604153687  0.0576049154984233
  0.3152876760247452  0.5452212767625539  0.0760343625169639
  0.5574447937754528  0.5639707466606652  0.0772385584612749
  0.8181986445765901  0.5529302893982404  0.0668681384564991
  0.0608685499884416  0.8067598722816953  0.0732364592403272
  0.3120508261018173  0.8138461048428951  0.0613700401787938
  0.5636488474151022  0.8110075041349347  0.0681722589035800
  0.8105697096040601  0.8120879393558980  0.0701247380021144
  0.0550940511992906  0.0595719514760660  0.3225822363170181
  0.3170831766117530  0.0568966878592079  0.3075916128524767
  0.5640300258541373  0.0529193621097548  0.3090932172111636
  0.8136286458765838  0.0722596082278812  0.2969026500287200
  0.0621676124220585  0.3009990762301413  0.3095538584967557
  0.3124935117330452  0.3140021810864297  0.3056182964619225
  0.5674006206381392  0.3155478483354202  0.3087635095806647
  0.8140850402770994  0.3253810482623152  0.3036247349175838
  0.0584902109303016  0.5764732255450440  0.3094662505450287
  0.3160938507943101  0.5760084964219629  0.3102732137635513
  0.5590424933972997  0.5597062813433737  0.3127400867035988
  0.8221694567470266  0.5609308972407518  0.3122017741654375
  0.0612790959840481  0.8079946949504659  0.3186999245392386
  0.3109129670345681  0.8052464458372484  0.3133258270976071
  0.5675524039615780  0.8077996201378213  0.3017976281437242
  0.8041866375465432  0.8191434884811031  0.3183354007382420
  0.0456595541593359  0.0554321175179311  0.5692894090655543
  0.3180171443774711  0.0625413766244804  0.5566067366394734
  0.5679557957975589  0.0520606653379687  0.5627717996284005
  0.8236129529012501  0.0613476090943124  0.5569432185653582
  0.0611881911231507  0.3107820782015409  0.5638160151725344
  0.3094601306294464  0.3137502815815409  0.5614940623255364
  0.5597512365140389  0.3198040861719420  0.5566478402736692
  0.8161036724987270  0.3118284484793890  0.5615461224169209
  0.0508963301575918  0.5637596323686367  0.5677795524673570
  0.3113847063585311  0.5541444268010807  0.5701678415751275
  0.5580475326798719  0.5648330319809887  0.5673815809177896
  0.8093654755376107  0.5593107833219904  0.5696773870784853
  0.0628127879480758  0.8104121248349330  0.5674936477436603
  0.3151876023560902  0.8055452570006310  0.5783588725401145
  0.5564251292543716  0.8136475485670616  0.5675518518962761
  0.8128877048241492  0.8034796771505128  0.5646346855298248
  0.0717528780582413  0.0682607409780118  0.8004369333972292
  0.2939900900221986  0.0598814682990039  0.8296420500253134
  0.5589076101858552  0.0703514731995440  0.8122763022096677
  0.8183782144375016  0.0632888439614945  0.7968050944637710
  0.0676396830791646  0.3051212405750334  0.8157658693328997
  0.3188938976580786  0.3056953455230698  0.8173512980203270
  0.5617274003814146  0.3128058043227142  0.8095556838475844
  0.8136465335270202  0.3165578850419024  0.7968925835083027
  0.0497035526476992  0.5555337055465586  0.8168387099338048
  0.3162827986118018  0.5608140706467921  0.8166751131212635
  0.5662110269455027  0.5667309371223865  0.8063167838617602
  0.8186542556168561  0.5569400263279931  0.8064402518102227
  0.0656580520528678  0.8110035873590036  0.8145602562504521
  0.3115313169226326  0.8147307218099016  0.8096505308814130
  0.5582602381218322  0.8105984694302180  0.8238280833038587
  0.8228722867083604  0.8049072537442825  0.8120399489388106
 
  0.00000000E+00  0.00000000E+00  0.00000000E+00
  0.00000000E+00  0.00000000E+00  0.00000000E+00
  0.00000000E+00  0.00000000E+00  0.00000000E+00
  0.00000000E+00  0.00000000E+00  0.00000000E+00
  0.00000000E+00  0.00000000E+00  0.00000000E+00
  0.00000000E+00  0.00000000E+00  0.00000000E+00
  0.00000000E+00  0.00000000E+00  0.00000000E+00
  0.00000000E+00  0.00000000E+00  0.00000000E+00
  0.00000000E+00  0.00000000E+00  0.00000000E+00
  0.00000000E+00  0.00000000E+00  0.00000000E+00
  0.00000000E+00  0.00000000E+00  0.00000000E+00
  0.00000000E+00  0.00000000E+00  0.00000000E+00
  0.00000000E+00  0.00000000E+00  0.00000000E+00
  0.00000000E+00  0.00000000E+00  0.00000000E+00
  0.00000000E+00  0.00000000E+00  0.00000000E+00
  0.00000000E+00  0.00000000E+00  0.00000000E+00
  0.00000000E+00  0.00000000E+00  0.00000000E+00
  0.00000000E+00  0.00000000E+00  0.00000000E+00
  0.00000000E+00  0.00000000E+00  0.00000000E+00
  0.00000000E+00  0.00000000E+00  0.00000000E+00
  0.00000000E+00  0.00000000E+00  0.00000000E+00
  0.00000000E+00  0.00000000E+00  0.00000000E+00
  0.00000000E+00  0.00000000E+00  0.00000000E+00
  0.00000000E+00  0.00000000E+00  0.00000000E+00
  0.00000000E+00  0.00000000E+00  0.00000000E+00
  0.00000000E+00  0.00000000E+00  0.00000000E+00
  0.00000000E+00  0.00000000E+00  0.00000000E+00
  0.00000000E+00  0.00000000E+00  0.00000000E+00
  0.00000000E+00  0.00000000E+00  0.00000000E+00
  0.00000000E+00  0.00000000E+00  0.00000000E+00
  0.00000000E+00  0.00000000E+00  0.00000000E+00
  0.00000000E+00  0.00000000E+00  0.00000000E+00
  0.00000000E+00  0.00000000E+00  0.00000000E+00
  0.00000000E+00  0.00000000E+00  0.00000000E+00
  0.00000000E+00  0.00000000E+00  0.00000000E+00
  0.00000000E+00  0.00000000E+00  0.00000000E+00
  0.00000000E+00  0.00000000E+00  0.00000000E+00
  0.00000000E+00  0.00000000E+00  0.00000000E+00
  0.00000000E+00  0.00000000E+00  0.00000000E+00
  0.00000000E+00  0.00000000E+00  0.00000000E+00
  0.00000000E+00  0.00000000E+00  0.00000000E+00
  0.00000000E+00  0.00000000E+00  0.00000000E+00
  0.00000000E+00  0.00000000E+00  0.00000000E+00
  0.00000000E+00  0.00000000E+00  0.00000000E+00
  0.00000000E+00  0.00000000E+00  0.00000000E+00
  0.00000000E+00  0.00000000E+00  0.00000000E+00
  0.00000000E+00  0.00000000E+00  0.00000000E+00
  0.00000000E+00  0.00000000E+00  0.00000000E+00
  0.00000000E+00  0.00000000E+00  0.00000000E+00
  0.00000000E+00  0.00000000E+00  0.00000000E+00
  0.00000000E+00  0.00000000E+00  0.00000000E+00
  0.00000000E+00  0.00000000E+00  0.00000000E+00
  0.00000000E+00  0.00000000E+00  0.00000000E+00
  0.00000000E+00  0.00000000E+00  0.00000000E+00
  0.00000000E+00  0.00000000E+00  0.00000000E+00
  0.00000000E+00  0.00000000E+00  0.00000000E+00
  0.00000000E+00  0.00000000E+00  0.00000000E+00
  0.00000000E+00  0.00000000E+00  0.00000000E+00
  0.00000000E+00  0.00000000E+00  0.00000000E+00
  0.00000000E+00  0.00000000E+00  0.00000000E+00
  0.00000000E+00  0.00000000E+00  0.00000000E+00
  0.00000000E+00  0.00000000E+00  0.00000000E+00
  0.00000000E+00  0.00000000E+00  0.00000000E+00
  0.00000000E+00  0.00000000E+00  0.00000000E+00
  0.00000000E+00  0.00000000E+00  0.00000000E+00
  0.00000000E+00  0.00000000E+00  0.00000000E+00
  0.00000000E+00  0.00000000E+00  0.00000000E+00
  0.00000000E+00  0.00000000E+00  0.00000000E+00
  0.00000000E+00  0.00000000E+00  0.00000000E+00
  0.00000000E+00  0.00000000E+00  0.00000000E+00
  0.00000000E+00  0.00000000E+00  0.00000000E+00
  0.00000000E+00  0.00000000E+00  0.00000000E+00
  0.00000000E+00  0.00000000E+00  0.00000000E+00
  0.00000000E+00  0.00000000E+00  0.00000000E+00
  0.00000000E+00  0.00000000E+00  0.00000000E+00
  0.00000000E+00  0.00000000E+00  0.00000000E+00
  0.00000000E+00  0.00000000E+00  0.00000000E+00
  0.00000000E+00  0.00000000E+00  0.00000000E+00
  0.00000000E+00  0.00000000E+00  0.00000000E+00
  0.00000000E+00  0.00000000E+00  0.00000000E+00
  0.00000000E+00  0.00000000E+00  0.00000000E+00
  0.00000000E+00  0.00000000E+00  0.00000000E+00
  0.00000000E+00  0.00000000E+00  0.00000000E+00
  0.00000000E+00  0.00000000E+00  0.00000000E+00
  0.00000000E+00  0.00000000E+00  0.00000000E+00
  0.00000000E+00  0.00000000E+00  0.00000000E+00
  0.00000000E+00  0.00000000E+00  0.00000000E+00
  0.00000000E+00  0.00000000E+00  0.00000000E+00
  0.00000000E+00  0.00000000E+00  0.00000000E+00
  0.00000000E+00  0.00000000E+00  0.00000000E+00
  0.00000000E+00  0.00000000E+00  0.00000000E+00
  0.00000000E+00  0.00000000E+00  0.00000000E+00
  0.00000000E+00  0.00000000E+00  0.00000000E+00
  0.00000000E+00  0.00000000E+00  0.00000000E+00
  0.00000000E+00  0.00000000E+00  0.00000000E+00
  0.00000000E+00  0.00000000E+00  0.00000000E+00
  0.00000000E+00  0.00000000E+00  0.00000000E+00
  0.00000000E+00  0.00000000E+00  0.00000000E+00
  0.00000000E+00  0.00000000E+00  0.00000000E+00
  0.00000000E+00  0.00000000E+00  0.00000000E+00
  0.00000000E+00  0.00000000E+00  0.00000000E+00
  0.00000000E+00  0.00000000E+00  0.00000000E+00
  0.00000000E+00  0.00000000E+00  0.00000000E+00
  0.00000000E+00  0.00000000E+00  0.00000000E+00
  0.00000000E+00  0.00000000E+00  0.00000000E+00
  0.00000000E+00  0.00000000E+00  0.00000000E+00
  0.00000000E+00  0.00000000E+00  0.00000000E+00
  0.00000000E+00  0.00000000E+00  0.00000000E+00
  0.00000000E+00  0.00000000E+00  0.00000000E+00
  0.00000000E+00  0.00000000E+00  0.00000000E+00
  0.00000000E+00  0.00000000E+00  0.00000000E+00
  0.00000000E+00  0.00000000E+00  0.00000000E+00
  0.00000000E+00  0.00000000E+00  0.00000000E+00
  0.00000000E+00  0.00000000E+00  0.00000000E+00
  0.00000000E+00  0.00000000E+00  0.00000000E+00
  0.00000000E+00  0.00000000E+00  0.00000000E+00
  0.00000000E+00  0.00000000E+00  0.00000000E+00
  0.00000000E+00  0.00000000E+00  0.00000000E+00
  0.00000000E+00  0.00000000E+00  0.00000000E+00
  0.00000000E+00  0.00000000E+00  0.00000000E+00
  0.00000000E+00  0.00000000E+00  0.00000000E+00
  0.00000000E+00  0.00000000E+00  0.00000000E+00
  0.00000000E+00  0.00000000E+00  0.00000000E+00
  0.00000000E+00  0.00000000E+00  0.00000000E+00
  0.00000000E+00  0.00000000E+00  0.00000000E+00
  0.00000000E+00  0.00000000E+00  0.00000000E+00
  0.00000000E+00  0.00000000E+00  0.00000000E+00
  0.00000000E+00  0.00000000E+00  0.00000000E+00
