kk
 1.0000000000000000
     0.0000000000000000   10.9373336906932952   10.9373336906932952
    10.9373336906932952    0.0000000000000000   10.9373336906932952
    10.9373336906932952   10.9373336906932952    0.0000000000000000
 128
Direct
  0.9988284442588355  0.0044044165236962  0.9925470345188619
  0.2517765929594246  0.9921088289075592  0.0066337899068976
  0.4902542656367406  0.0058105978998630  0.0046622393051335
  0.7475928781497939  0.0146961593476180  0.9872454474497497
  0.0035580820246618  0.2462401774770470  0.0044216241092950
  0.2524146757391136  0.2509981565137844  0.9989743131053322
  0.4929655335399507  0.2436863571362241  0.0094833551094578
  0.7520493886075134  0.2453679232980212  0.0045202312830337
  0.0034851342916756  0.4876496719472291  0.0062312727842071
  0.2405054544777215  0.5062826098685679  0.9956666311781345
  0.4962543532749780  0.4950758158637918  0.0106384934623718
  0.7454205176104237  0.5020628701568201  0.0000186964310033
  0.9925070425517111  0.7437865754885582  0.0071664530799638
  0.2506756967439686  0.7573808376422209  0.9946849642276007
  0.5012141480213743  0.7476038347306982  0.0114914985932274
  0.7488388778158463  0.7376702759679010  0.0183891363918330
  0.9916407027272931  0.0109808456705241  0.2540957456191141
  0.2377639797202426  0.0191458931052682  0.2415617839636126
  0.4961061866760543  0.9961904332319657  0.2577861928264685
  0.7389444637884555  0.0094315043198624  0.2580067743242482
  0.0025288396960446  0.2527870897504205  0.2459472207435706
  0.2549593408052530  0.2495404669275465  0.2492881948311859
  0.5037908845816764  0.2429218123883596  0.2515207402299782
  0.7502596805924659  0.2461386902982968  0.2556960965770095
  0.0010511054721976  0.4966379830376514  0.2487559150093406
  0.2569723326398196  0.4980954298232788  0.2497478996319720
  0.4994027112659086  0.4932880622332957  0.2480936298027289
  0.7500302512260099  0.5016043894330953  0.2505762134800430
  0.9803179117465771  0.7504734211420304  0.2641399822438262
  0.2451368104292176  0.7502875064326908  0.2524164679929543
  0.5059332397251430  0.7515684814546755  0.2476043337470599
  0.7441074710401584  0.7496124232703156  0.2525442132573042
  0.9958683701745750  0.9963862788103844  0.5052641056387250
  0.2382898849283175  0.0028748818396945  0.5124844808465114
  0.5130098653336812  0.9879370349417883  0.5043687569639647
  0.7623194564352554  0.9960553691761805  0.4890117864448386
  0.0121630317693373  0.2377878147261832  0.5004398417186111
  0.2555946896550265  0.2508513834314433  0.4916705719975846
  0.4934404199733511  0.2423775327076914  0.5051897815045053
  0.7467425408200573  0.2511778014147426  0.5054114360573448
  0.0055566785009245  0.4957327155968590  0.4948898032767737
  0.2452783258731678  0.4924194475612377  0.5150489615343372
  0.4957498447238329  0.5000010944967030  0.5003961678929156
  0.7703032397863139  0.5080627716126198  0.4900847413995403
  0.9970475975185535  0.7401588694341099  0.5055992174273396
  0.2662158000957240  0.7453764140852436  0.4936393676218626
  0.5119436675953416  0.7357005023763051  0.4972366750883977
  0.7536514874441609  0.7508020076686847  0.4994240735657209
  0.0001813849885000  0.0013681764367229  0.7535692718580995
  0.2544574143466768  0.9953831825648903  0.7489755190949057
  0.5060386128806000  0.0020125462659483  0.7462593436857132
  0.7521443332494477  0.9889725684842010  0.7582341527841688
  0.0035574610446507  0.2551129072972926  0.7420009723565526
  0.2464285189051940  0.2578893361433994  0.7525408399570129
  0.4970382169130487  0.2526798770371497  0.7545840449959960
  0.7555438834005972  0.2519359794517832  0.7490825124399584
  0.0025060330689878  0.4825404017479370  0.7525725291391355
  0.2480738538585102  0.5029243076462608  0.7525276191087575
  0.5012903983916079  0.4946049528793137  0.7484320089274429
  0.7647279086707062  0.4848351556542350  0.7539080740753275
  0.0007754015256236  0.7441888825546837  0.7496372457313215
  0.2465188441155806  0.7487708150818694  0.7595401998982850
  0.5056989561313987  0.7424017247118485  0.7615607348966145
  0.7465530840557303  0.7489241400120603  0.7584162005142816
  0.0744488223153533  0.0620793317354796  0.0486869217767157
  0.3103834940823900  0.0693106339854424  0.0555634788647464
  0.5590220655515596  0.0601243027160606  0.0643720721416829
  0.8047758197277542  0.0649330593116918  0.0790042715714166
  0.0696148006389433  0.3073924444520820  0.0677729307976222
  0.3097037699083398  0.3170078611107797  0.0542597863108397
  0.5534060067557296  0.3165053475209113  0.0537869189236367
  0.8152181299945144  0.3066982240117341  0.0688675857989894
  0.0680587370113416  0.5674446604153693  0.0576049154984255
  0.3152876760247486  0.5452212767625567  0.0760343625169636
  0.5574447937754506  0.5639707466606652  0.0772385584612716
  0.8181986445765904  0.5529302893982380  0.0668681384565019
  0.0608685499884389  0.8067598722816957  0.0732364592403238
  0.3120508261018207  0.8138461048428922  0.0613700401787928
  0.5636488474151047  0.8110075041349382  0.0681722589035825
  0.8105697096040577  0.8120879393559011  0.0701247380021122
  0.0550940511992876  0.0595719514760693  0.3225822363170209
  0.3170831766117552  0.0568966878592092  0.3075916128524739
  0.5640300258541386  0.0529193621097534  0.3090932172111614
  0.8136286458765868  0.0722596082278831  0.2969026500287170
  0.0621676124220581  0.3009990762301388  0.3095538584967561
  0.3124935117330486  0.3140021810864330  0.3056182964619250
  0.5674006206381391  0.3155478483354212  0.3087635095806656
  0.8140850402770973  0.3253810482623169  0.3036247349175852
  0.0584902109303029  0.5764732255450411  0.3094662505450296
  0.3160938507943092  0.5760084964219645  0.3102732137635494
  0.5590424933973031  0.5597062813433750  0.3127400867036016
  0.8221694567470267  0.5609308972407537  0.3122017741654388
  0.0612790959840501  0.8079946949504674  0.3186999245392400
  0.3109129670345646  0.8052464458372501  0.3133258270976088
  0.5675524039615770  0.8077996201378191  0.3017976281437230
  0.8041866375465420  0.8191434884811010  0.3183354007382428
  0.0456595541593340  0.0554321175179310  0.5692894090655554
  0.3180171443774710  0.0625413766244793  0.5566067366394739
  0.5679557957975622  0.0520606653379712  0.5627717996284036
  0.8236129529012493  0.0613476090943140  0.5569432185653582
  0.0611881911231498  0.3107820782015441  0.5638160151725365
  0.3094601306294498  0.3137502815815434  0.5614940623255337
  0.5597512365140399  0.3198040861719432  0.5566478402736728
  0.8161036724987271  0.3118284484793875  0.5615461224169198
  0.0508963301575931  0.5637596323686340  0.5677795524673553
  0.3113847063585299  0.5541444268010799  0.5701678415751271
  0.5580475326798688  0.5648330319809858  0.5673815809177877
  0.8093654755376135  0.5593107833219919  0.5696773870784840
  0.0628127879480759  0.8104121248349356  0.5674936477436591
  0.3151876023560896  0.8055452570006336  0.5783588725401134
  0.5564251292543696  0.8136475485670636  0.5675518518962737
  0.8128877048241462  0.8034796771505163  0.5646346855298252
  0.0717528780582412  0.0682607409780149  0.8004369333972290
  0.2939900900221991  0.0598814682990036  0.8296420500253138
  0.5589076101858576  0.0703514731995436  0.8122763022096687
  0.8183782144375050  0.0632888439614929  0.7968050944637702
  0.0676396830791653  0.3051212405750300  0.8157658693328964
  0.3188938976580810  0.3056953455230720  0.8173512980203269
  0.5617274003814121  0.3128058043227146  0.8095556838475849
  0.8136465335270210  0.3165578850419025  0.7968925835082999
  0.0497035526476997  0.5555337055465600  0.8168387099338047
  0.3162827986118031  0.5608140706467909  0.8166751131212646
  0.5662110269455061  0.5667309371223880  0.8063167838617583
  0.8186542556168542  0.5569400263279897  0.8064402518102215
  0.0656580520528695  0.8110035873590051  0.8145602562504528
  0.3115313169226305  0.8147307218099044  0.8096505308814139
  0.5582602381218290  0.8105984694302154  0.8238280833038591
  0.8228722867083613  0.8049072537442826  0.8120399489388133
