kk                                      
   1.00000000000000     
     0.0000000000000000   10.9373336906932952   10.9373336906932952
    10.9373336906932952    0.0000000000000000   10.9373336906932952
    10.9373336906932952   10.9373336906932952    0.0000000000000000
   Si
   128
Direct
  0.0074048329932666  0.9965250125652787  0.9979765468547583
  0.2598572977025668  0.9949623715702671  0.9854962778763294
  0.5001585291379342  0.0050171998196546  0.9938469566334618
  0.7465631001157931  0.9956602701381101  0.0069800117281389
  0.9964300949080638  0.2425054720221596  0.9919254317178812
  0.2420088411646972  0.2598074385603439  0.0059961466916292
  0.4941190110834910  0.2567997673884435  0.9927992582190228
  0.7519438289739782  0.2558083174652808  0.9925286456415776
  0.0033597615686389  0.4942530449324067  0.0020945427812151
  0.2481467591705098  0.5044095917942784  0.0018310233000847
  0.5010241880805708  0.4961212053879080  0.0025511651127061
  0.7409419240972568  0.4995592586834121  0.9998224770539963
  0.0027505458071033  0.7521023416960517  0.9936095342105631
  0.2496287241690496  0.7504831843019772  0.9908809497237527
  0.5004980902296694  0.7480688570533331  0.0030463662400848
  0.7466985360720102  0.7399771412426475  0.0128709133029261
  0.0083640234722751  0.9966150306865558  0.2524796982554491
  0.2462591192016177  0.0024274315191803  0.2588244379534075
  0.5059946537994264  0.9925764800175614  0.2458325446462339
  0.7498502238466642  0.0013417129460507  0.2400534685487656
  0.9983020768147952  0.2629606940711327  0.2339902660969173
  0.2424471123711314  0.2579494348643507  0.2445905845371499
  0.4950378701807381  0.2406497191886956  0.2487272431811860
  0.7482857011335611  0.2446974965528810  0.2437688032155663
  0.9914775266595797  0.5053013774318416  0.2584807362230777
  0.2517389161946539  0.4904407313385803  0.2461551902771504
  0.5004010336424543  0.5080569710762717  0.2464027265990936
  0.7515813193599001  0.5019762764320959  0.2487673934998256
  0.0137777724344019  0.7407414224923983  0.2544352749649619
  0.2359066239408847  0.7569833489044413  0.2453745735974096
  0.5025135183171301  0.7533934298274403  0.2535136575546701
  0.7440196495923956  0.7464406655290077  0.2538493242523074
  0.0073573171658410  0.9955132801537587  0.4993574107854926
  0.2523093827237730  0.0016651934229941  0.4937187597850254
  0.4960111569142498  0.0097066565040365  0.4999129404794544
  0.7643997444845141  0.9871865345211290  0.4959388846677868
  0.9983679462588526  0.2515719971465913  0.5022745252021821
  0.2391116395025250  0.2554669002877361  0.4955047170867601
  0.5014603114686693  0.2535926650414240  0.4983857643978098
  0.7472082505614566  0.2430997537008110  0.5090509679017359
  0.0003710322086761  0.4952180624280729  0.4991791650811166
  0.2520669075444530  0.4963930393432037  0.4899064728455400
  0.4999254003610076  0.4959519862007866  0.5012441871625057
  0.7528495413826661  0.4930654570199877  0.5002261113608100
  0.9922426038763206  0.7534441232827902  0.4944978262539763
  0.2462725381290412  0.7519544853138598  0.5091049512833550
  0.4924762928983384  0.7423835999821762  0.5053160129858156
  0.7485052762350008  0.7498147833983921  0.5005502807630791
  0.0043339024416724  0.9960430033755046  0.7431781072596593
  0.2427019943310427  0.0046656427247598  0.7593648145500964
  0.4972646671079559  0.9982568827237301  0.7499154427640349
  0.7510497883081797  0.9967234266219336  0.7458984414024954
  0.9947951384913196  0.2530553015580921  0.7444211193329835
  0.2568945841519508  0.2477343610218199  0.7395163602155179
  0.5002159534753829  0.2566182389138305  0.7461749770049977
  0.7413835960038710  0.2502748697204638  0.7714340692123116
  0.9958099459535745  0.5003076842570522  0.7511558285395736
  0.2499802326052887  0.5025179653181198  0.7567304902095700
  0.4866063602301693  0.5014638960126447  0.7639452319942137
  0.7495416021138936  0.4897551094086268  0.7537066921518587
  0.9985760132128121  0.7575045725613592  0.7432336564156969
  0.2518363719748535  0.7412485184533111  0.7611231601159147
  0.4950411811484088  0.7536235443226218  0.7567025863503858
  0.7507051945456169  0.7534886807507704  0.7408403734220954
  0.0711722388062199  0.0547771252270337  0.0639737979978534
  0.3151372792991225  0.0534979545455343  0.0657301668799448
  0.5692710509754306  0.0559336211578909  0.0650846217878112
  0.8040789020315628  0.0754436554049249  0.0580616016700262
  0.0624113184469479  0.3089062580404587  0.0611298355364056
  0.3114828539770897  0.3101348399253325  0.0684097786665063
  0.5642440812646186  0.3046581526307719  0.0613180095003472
  0.8222035144648316  0.3163840520375771  0.0586536553178121
  0.0566946939739807  0.5600484166157997  0.0671532761544498
  0.3152653571043160  0.5667996053002469  0.0570469599992762
  0.5594181865092764  0.5657787015433868  0.0670065641268351
  0.8154050660823344  0.5653842752110805  0.0730100058999454
  0.0616176433033431  0.8127364149286223  0.0705230871062099
  0.3077073658459639  0.8106954236456474  0.0632182165483712
  0.5650753598685441  0.8103432215341542  0.0692794269793708
  0.8204986158890080  0.8155356338515034  0.0495027048445849
  0.0674907996485601  0.0588007556760743  0.3200893197698633
  0.3117522342170105  0.0718839938192772  0.3066565818624483
  0.5584461531396414  0.0622689946244392  0.3106706566151729
  0.8137346472571849  0.0545684289848793  0.3192934230276023
  0.0576424029623510  0.3226668315265471  0.3093876176692589
  0.3178631648830645  0.3050183287761783  0.3158501691240332
  0.5626058938196792  0.3213221379037279  0.3053602116247873
  0.8133157814848673  0.3267607010879985  0.3130354541557736
  0.0653064912460053  0.5577940345474701  0.3156752773898788
  0.3222690858734012  0.5618220295715091  0.3066748249274056
  0.5554734021079568  0.5651832091216775  0.3080720202285931
  0.8190262222291764  0.5510479882118560  0.3077334585901426
  0.0606063382371715  0.8117114253086513  0.3207982249702326
  0.3216776353503619  0.8052357767936940  0.3127294402574989
  0.5494031064338216  0.8213322390587265  0.3148180467977042
  0.8123388315031619  0.8178114472653064  0.3146073315780100
  0.0720625306771225  0.0596123059788312  0.5551836081930261
  0.3062784725739576  0.0603783037001406  0.5683407563008416
  0.5651773266924991  0.0554448679792330  0.5699689516962039
  0.8154820554521791  0.0655997046124099  0.5568524595830482
  0.0636426813485471  0.3086290334634043  0.5560078388354555
  0.3133848864944468  0.3230430605443857  0.5539493710758876
  0.5659011377996492  0.3074293800441765  0.5624472481241014
  0.8187910076058529  0.3107760469705809  0.5665942275968021
  0.0700572175004979  0.5552959928719829  0.5734060751789798
  0.3196880767374637  0.5632949469128974  0.5554265270798098
  0.5558952563736881  0.5612148621218793  0.5674742202118992
  0.8179786477341011  0.5674947309625651  0.5656039817176861
  0.0643906078017125  0.8209438728677583  0.5618891230489780
  0.3097870725664151  0.8209321552969868  0.5487721220619832
  0.5610980382716235  0.8198655021145314  0.5612993311067882
  0.8194428712558448  0.8135036860414786  0.5581188109486774
  0.0568223796125764  0.0574193559906178  0.8219374488329265
  0.3225136870890069  0.0585974348151410  0.8063708753178602
  0.5457225682636917  0.0675166283422968  0.8150909411083589
  0.8077302127042358  0.0561128057141929  0.8061671827133452
  0.0692170394175449  0.3182014435813514  0.8026686268165406
  0.3060191987934360  0.3015980405735093  0.8142757403140095
  0.5650679810382329  0.3109964964598007  0.8106509878681649
  0.8196014831271441  0.3080857093430467  0.8120427872461846
  0.0583577835351221  0.5515221076814285  0.8274946870294713
  0.3123395514076179  0.5674252163926354  0.8158905263617839
  0.5584830741406606  0.5697051750902844  0.8173418596957163
  0.8175596548370478  0.5609010676560686  0.8041973872220183
  0.0642106080159763  0.8112727143549776  0.8137778790258139
  0.3087331265698410  0.8273894718452297  0.8102995403515294
  0.5649487039414964  0.8143588688623780  0.8058726724682614
  0.8154664133700535  0.8153149269401467  0.8209694957357456
 
  0.00000000E+00  0.00000000E+00  0.00000000E+00
  0.00000000E+00  0.00000000E+00  0.00000000E+00
  0.00000000E+00  0.00000000E+00  0.00000000E+00
  0.00000000E+00  0.00000000E+00  0.00000000E+00
  0.00000000E+00  0.00000000E+00  0.00000000E+00
  0.00000000E+00  0.00000000E+00  0.00000000E+00
  0.00000000E+00  0.00000000E+00  0.00000000E+00
  0.00000000E+00  0.00000000E+00  0.00000000E+00
  0.00000000E+00  0.00000000E+00  0.00000000E+00
  0.00000000E+00  0.00000000E+00  0.00000000E+00
  0.00000000E+00  0.00000000E+00  0.00000000E+00
  0.00000000E+00  0.00000000E+00  0.00000000E+00
  0.00000000E+00  0.00000000E+00  0.00000000E+00
  0.00000000E+00  0.00000000E+00  0.00000000E+00
  0.00000000E+00  0.00000000E+00  0.00000000E+00
  0.00000000E+00  0.00000000E+00  0.00000000E+00
  0.00000000E+00  0.00000000E+00  0.00000000E+00
  0.00000000E+00  0.00000000E+00  0.00000000E+00
  0.00000000E+00  0.00000000E+00  0.00000000E+00
  0.00000000E+00  0.00000000E+00  0.00000000E+00
  0.00000000E+00  0.00000000E+00  0.00000000E+00
  0.00000000E+00  0.00000000E+00  0.00000000E+00
  0.00000000E+00  0.00000000E+00  0.00000000E+00
  0.00000000E+00  0.00000000E+00  0.00000000E+00
  0.00000000E+00  0.00000000E+00  0.00000000E+00
  0.00000000E+00  0.00000000E+00  0.00000000E+00
  0.00000000E+00  0.00000000E+00  0.00000000E+00
  0.00000000E+00  0.00000000E+00  0.00000000E+00
  0.00000000E+00  0.00000000E+00  0.00000000E+00
  0.00000000E+00  0.00000000E+00  0.00000000E+00
  0.00000000E+00  0.00000000E+00  0.00000000E+00
  0.00000000E+00  0.00000000E+00  0.00000000E+00
  0.00000000E+00  0.00000000E+00  0.00000000E+00
  0.00000000E+00  0.00000000E+00  0.00000000E+00
  0.00000000E+00  0.00000000E+00  0.00000000E+00
  0.00000000E+00  0.00000000E+00  0.00000000E+00
  0.00000000E+00  0.00000000E+00  0.00000000E+00
  0.00000000E+00  0.00000000E+00  0.00000000E+00
  0.00000000E+00  0.00000000E+00  0.00000000E+00
  0.00000000E+00  0.00000000E+00  0.00000000E+00
  0.00000000E+00  0.00000000E+00  0.00000000E+00
  0.00000000E+00  0.00000000E+00  0.00000000E+00
  0.00000000E+00  0.00000000E+00  0.00000000E+00
  0.00000000E+00  0.00000000E+00  0.00000000E+00
  0.00000000E+00  0.00000000E+00  0.00000000E+00
  0.00000000E+00  0.00000000E+00  0.00000000E+00
  0.00000000E+00  0.00000000E+00  0.00000000E+00
  0.00000000E+00  0.00000000E+00  0.00000000E+00
  0.00000000E+00  0.00000000E+00  0.00000000E+00
  0.00000000E+00  0.00000000E+00  0.00000000E+00
  0.00000000E+00  0.00000000E+00  0.00000000E+00
  0.00000000E+00  0.00000000E+00  0.00000000E+00
  0.00000000E+00  0.00000000E+00  0.00000000E+00
  0.00000000E+00  0.00000000E+00  0.00000000E+00
  0.00000000E+00  0.00000000E+00  0.00000000E+00
  0.00000000E+00  0.00000000E+00  0.00000000E+00
  0.00000000E+00  0.00000000E+00  0.00000000E+00
  0.00000000E+00  0.00000000E+00  0.00000000E+00
  0.00000000E+00  0.00000000E+00  0.00000000E+00
  0.00000000E+00  0.00000000E+00  0.00000000E+00
  0.00000000E+00  0.00000000E+00  0.00000000E+00
  0.00000000E+00  0.00000000E+00  0.00000000E+00
  0.00000000E+00  0.00000000E+00  0.00000000E+00
  0.00000000E+00  0.00000000E+00  0.00000000E+00
  0.00000000E+00  0.00000000E+00  0.00000000E+00
  0.00000000E+00  0.00000000E+00  0.00000000E+00
  0.00000000E+00  0.00000000E+00  0.00000000E+00
  0.00000000E+00  0.00000000E+00  0.00000000E+00
  0.00000000E+00  0.00000000E+00  0.00000000E+00
  0.00000000E+00  0.00000000E+00  0.00000000E+00
  0.00000000E+00  0.00000000E+00  0.00000000E+00
  0.00000000E+00  0.00000000E+00  0.00000000E+00
  0.00000000E+00  0.00000000E+00  0.00000000E+00
  0.00000000E+00  0.00000000E+00  0.00000000E+00
  0.00000000E+00  0.00000000E+00  0.00000000E+00
  0.00000000E+00  0.00000000E+00  0.00000000E+00
  0.00000000E+00  0.00000000E+00  0.00000000E+00
  0.00000000E+00  0.00000000E+00  0.00000000E+00
  0.00000000E+00  0.00000000E+00  0.00000000E+00
  0.00000000E+00  0.00000000E+00  0.00000000E+00
  0.00000000E+00  0.00000000E+00  0.00000000E+00
  0.00000000E+00  0.00000000E+00  0.00000000E+00
  0.00000000E+00  0.00000000E+00  0.00000000E+00
  0.00000000E+00  0.00000000E+00  0.00000000E+00
  0.00000000E+00  0.00000000E+00  0.00000000E+00
  0.00000000E+00  0.00000000E+00  0.00000000E+00
  0.00000000E+00  0.00000000E+00  0.00000000E+00
  0.00000000E+00  0.00000000E+00  0.00000000E+00
  0.00000000E+00  0.00000000E+00  0.00000000E+00
  0.00000000E+00  0.00000000E+00  0.00000000E+00
  0.00000000E+00  0.00000000E+00  0.00000000E+00
  0.00000000E+00  0.00000000E+00  0.00000000E+00
  0.00000000E+00  0.00000000E+00  0.00000000E+00
  0.00000000E+00  0.00000000E+00  0.00000000E+00
  0.00000000E+00  0.00000000E+00  0.00000000E+00
  0.00000000E+00  0.00000000E+00  0.00000000E+00
  0.00000000E+00  0.00000000E+00  0.00000000E+00
  0.00000000E+00  0.00000000E+00  0.00000000E+00
  0.00000000E+00  0.00000000E+00  0.00000000E+00
  0.00000000E+00  0.00000000E+00  0.00000000E+00
  0.00000000E+00  0.00000000E+00  0.00000000E+00
  0.00000000E+00  0.00000000E+00  0.00000000E+00
  0.00000000E+00  0.00000000E+00  0.00000000E+00
  0.00000000E+00  0.00000000E+00  0.00000000E+00
  0.00000000E+00  0.00000000E+00  0.00000000E+00
  0.00000000E+00  0.00000000E+00  0.00000000E+00
  0.00000000E+00  0.00000000E+00  0.00000000E+00
  0.00000000E+00  0.00000000E+00  0.00000000E+00
  0.00000000E+00  0.00000000E+00  0.00000000E+00
  0.00000000E+00  0.00000000E+00  0.00000000E+00
  0.00000000E+00  0.00000000E+00  0.00000000E+00
  0.00000000E+00  0.00000000E+00  0.00000000E+00
  0.00000000E+00  0.00000000E+00  0.00000000E+00
  0.00000000E+00  0.00000000E+00  0.00000000E+00
  0.00000000E+00  0.00000000E+00  0.00000000E+00
  0.00000000E+00  0.00000000E+00  0.00000000E+00
  0.00000000E+00  0.00000000E+00  0.00000000E+00
  0.00000000E+00  0.00000000E+00  0.00000000E+00
  0.00000000E+00  0.00000000E+00  0.00000000E+00
  0.00000000E+00  0.00000000E+00  0.00000000E+00
  0.00000000E+00  0.00000000E+00  0.00000000E+00
  0.00000000E+00  0.00000000E+00  0.00000000E+00
  0.00000000E+00  0.00000000E+00  0.00000000E+00
  0.00000000E+00  0.00000000E+00  0.00000000E+00
  0.00000000E+00  0.00000000E+00  0.00000000E+00
  0.00000000E+00  0.00000000E+00  0.00000000E+00
  0.00000000E+00  0.00000000E+00  0.00000000E+00
  0.00000000E+00  0.00000000E+00  0.00000000E+00
