kk
 1.0000000000000000
     0.0000000000000000   10.9373336906932952   10.9373336906932952
    10.9373336906932952    0.0000000000000000   10.9373336906932952
    10.9373336906932952   10.9373336906932952    0.0000000000000000
 128
Direct
  0.0074048329932696  0.9965250125652761  0.9979765468547589
  0.2598572977025650  0.9949623715702703  0.9854962778763281
  0.5001585291379356  0.0050171998196512  0.9938469566334618
  0.7465631001157914  0.9956602701381103  0.0069800117281408
  0.9964300949080643  0.2425054720221589  0.9919254317178817
  0.2420088411646992  0.2598074385603409  0.0059961466916285
  0.4941190110834925  0.2567997673884425  0.9927992582190210
  0.7519438289739763  0.2558083174652779  0.9925286456415778
  0.0033597615686417  0.4942530449324044  0.0020945427812181
  0.2481467591705129  0.5044095917942818  0.0018310233000814
  0.5010241880805676  0.4961212053879105  0.0025511651127051
  0.7409419240972598  0.4995592586834112  0.9998224770539935
  0.0027505458071026  0.7521023416960522  0.9936095342105647
  0.2496287241690494  0.7504831843019748  0.9908809497237547
  0.5004980902296707  0.7480688570533315  0.0030463662400854
  0.7466985360720093  0.7399771412426484  0.0128709133029258
  0.0083640234722770  0.9966150306865575  0.2524796982554460
  0.2462591192016166  0.0024274315191786  0.2588244379534088
  0.5059946537994265  0.9925764800175649  0.2458325446462310
  0.7498502238466662  0.0013417129460522  0.2400534685487673
  0.9983020768147981  0.2629606940711320  0.2339902660969140
  0.2424471123711301  0.2579494348643490  0.2445905845371532
  0.4950378701807383  0.2406497191886970  0.2487272431811834
  0.7482857011335624  0.2446974965528804  0.2437688032155672
  0.9914775266595769  0.5053013774318412  0.2584807362230808
  0.2517389161946540  0.4904407313385821  0.2461551902771531
  0.5004010336424564  0.5080569710762730  0.2464027265990934
  0.7515813193599021  0.5019762764320942  0.2487673934998252
  0.0137777724343988  0.7407414224923971  0.2544352749649613
  0.2359066239408824  0.7569833489044396  0.2453745735974105
  0.5025135183171330  0.7533934298274372  0.2535136575546696
  0.7440196495923953  0.7464406655290103  0.2538493242523074
  0.0073573171658427  0.9955132801537556  0.4993574107854948
  0.2523093827237715  0.0016651934229942  0.4937187597850254
  0.4960111569142516  0.0097066565040391  0.4999129404794563
  0.7643997444845163  0.9871865345211274  0.4959388846677900
  0.9983679462588516  0.2515719971465931  0.5022745252021827
  0.2391116395025283  0.2554669002877368  0.4955047170867571
  0.5014603114686698  0.2535926650414244  0.4983857643978120
  0.7472082505614583  0.2430997537008086  0.5090509679017367
  0.0003710322086727  0.4952180624280701  0.4991791650811145
  0.2520669075444554  0.4963930393432029  0.4899064728455422
  0.4999254003610077  0.4959519862007854  0.5012441871625044
  0.7528495413826667  0.4930654570199862  0.5002261113608112
  0.9922426038763192  0.7534441232827904  0.4944978262539744
  0.2462725381290377  0.7519544853138573  0.5091049512833550
  0.4924762928983350  0.7423835999821762  0.5053160129858142
  0.7485052762349976  0.7498147833983909  0.5005502807630806
  0.0043339024416691  0.9960430033755063  0.7431781072596558
  0.2427019943310458  0.0046656427247584  0.7593648145500964
  0.4972646671079592  0.9982568827237301  0.7499154427640325
  0.7510497883081823  0.9967234266219342  0.7458984414024937
  0.9947951384913206  0.2530553015580936  0.7444211193329829
  0.2568945841519498  0.2477343610218205  0.7395163602155165
  0.5002159534753805  0.2566182389138273  0.7461749770049998
  0.7413835960038717  0.2502748697204649  0.7714340692123125
  0.9958099459535754  0.5003076842570552  0.7511558285395769
  0.2499802326052911  0.5025179653181197  0.7567304902095688
  0.4866063602301659  0.5014638960126450  0.7639452319942163
  0.7495416021138928  0.4897551094086300  0.7537066921518553
  0.9985760132128151  0.7575045725613566  0.7432336564156954
  0.2518363719748528  0.7412485184533111  0.7611231601159149
  0.4950411811484093  0.7536235443226236  0.7567025863503831
  0.7507051945456169  0.7534886807507730  0.7408403734220963
  0.0711722388062182  0.0547771252270351  0.0639737979978538
  0.3151372792991192  0.0534979545455377  0.0657301668799471
  0.5692710509754315  0.0559336211578877  0.0650846217878126
  0.8040789020315593  0.0754436554049219  0.0580616016700247
  0.0624113184469506  0.3089062580404570  0.0611298355364083
  0.3114828539770932  0.3101348399253341  0.0684097786665079
  0.5642440812646206  0.3046581526307727  0.0613180095003444
  0.8222035144648320  0.3163840520375758  0.0586536553178151
  0.0566946939739820  0.5600484166157975  0.0671532761544481
  0.3152653571043191  0.5667996053002465  0.0570469599992753
  0.5594181865092746  0.5657787015433848  0.0670065641268317
  0.8154050660823314  0.5653842752110788  0.0730100058999438
  0.0616176433033432  0.8127364149286243  0.0705230871062117
  0.3077073658459617  0.8106954236456492  0.0632182165483724
  0.5650753598685442  0.8103432215341512  0.0692794269793715
  0.8204986158890066  0.8155356338515065  0.0495027048445854
  0.0674907996485635  0.0588007556760764  0.3200893197698612
  0.3117522342170096  0.0718839938192769  0.3066565818624455
  0.5584461531396423  0.0622689946244410  0.3106706566151736
  0.8137346472571864  0.0545684289848816  0.3192934230275990
  0.0576424029623487  0.3226668315265495  0.3093876176692575
  0.3178631648830613  0.3050183287761804  0.3158501691240359
  0.5626058938196796  0.3213221379037295  0.3053602116247845
  0.8133157814848685  0.3267607010879999  0.3130354541557752
  0.0653064912460028  0.5577940345474669  0.3156752773898769
  0.3222690858733999  0.5618220295715081  0.3066748249274029
  0.5554734021079555  0.5651832091216799  0.3080720202285963
  0.8190262222291742  0.5510479882118539  0.3077334585901450
  0.0606063382371706  0.8117114253086501  0.3207982249702305
  0.3216776353503595  0.8052357767936942  0.3127294402574956
  0.5494031064338213  0.8213322390587273  0.3148180467977071
  0.8123388315031597  0.8178114472653071  0.3146073315780104
  0.0720625306771208  0.0596123059788333  0.5551836081930295
  0.3062784725739580  0.0603783037001399  0.5683407563008421
  0.5651773266925021  0.0554448679792309  0.5699689516962013
  0.8154820554521756  0.0655997046124084  0.5568524595830490
  0.0636426813485442  0.3086290334634014  0.5560078388354589
  0.3133848864944450  0.3230430605443844  0.5539493710758883
  0.5659011377996523  0.3074293800441759  0.5624472481241030
  0.8187910076058516  0.3107760469705839  0.5665942275968046
  0.0700572175004952  0.5552959928719843  0.5734060751789823
  0.3196880767374612  0.5632949469128958  0.5554265270798132
  0.5558952563736913  0.5612148621218810  0.5674742202119023
  0.8179786477340978  0.5674947309625672  0.5656039817176830
  0.0643906078017135  0.8209438728677557  0.5618891230489751
  0.3097870725664183  0.8209321552969839  0.5487721220619827
  0.5610980382716223  0.8198655021145347  0.5612993311067889
  0.8194428712558444  0.8135036860414796  0.5581188109486795
  0.0568223796125789  0.0574193559906200  0.8219374488329285
  0.3225136870890034  0.0585974348151435  0.8063708753178603
  0.5457225682636894  0.0675166283422985  0.8150909411083586
  0.8077302127042381  0.0561128057141909  0.8061671827133456
  0.0692170394175426  0.3182014435813517  0.8026686268165375
  0.3060191987934387  0.3015980405735119  0.8142757403140116
  0.5650679810382326  0.3109964964598012  0.8106509878681670
  0.8196014831271450  0.3080857093430435  0.8120427872461816
  0.0583577835351236  0.5515221076814263  0.8274946870294722
  0.3123395514076145  0.5674252163926380  0.8158905263617845
  0.5584830741406622  0.5697051750902838  0.8173418596957174
  0.8175596548370485  0.5609010676560664  0.8041973872220162
  0.0642106080159772  0.8112727143549753  0.8137778790258160
  0.3087331265698415  0.8273894718452317  0.8102995403515281
  0.5649487039414963  0.8143588688623769  0.8058726724682600
  0.8154664133700541  0.8153149269401490  0.8209694957357437
