kk                                      
   1.00000000000000     
     0.0000000000000000   10.9373336906932952   10.9373336906932952
    10.9373336906932952    0.0000000000000000   10.9373336906932952
    10.9373336906932952   10.9373336906932952    0.0000000000000000
   Si
   128
Direct
  0.9920356038200779  0.0066536790003937  0.9988296117067534
  0.2412205768145625  0.0002048193540816  0.0002127231840845
  0.4974348433107068  0.0054694819673813  0.9909101010629229
  0.7507971938292073  0.9937122208959437  0.0004457586718445
  0.0062202032594243  0.2438996550571133  0.0013155884299323
  0.2433794835455956  0.2547316538393360  0.9969650988180518
  0.5022506046902038  0.2425643203254850  0.0089039227256720
  0.7454809406147902  0.2489809380483621  0.0061969679478580
  0.9957845494823800  0.5038912527561124  0.9950446414478762
  0.2415274858724175  0.5107321652136037  0.9990607321363427
  0.5071908309090887  0.4994223128405864  0.0026174298084953
  0.7583893197726397  0.5013791205224862  0.9922266922371250
  0.9959342647987910  0.7650148026129600  0.9969299729286121
  0.2557282280415052  0.7544477264498042  0.0018520073372414
  0.5057611117499690  0.7574444586241142  0.9973237316413730
  0.7450841553769436  0.7552026529321907  0.9965848875489556
  0.9959302256297775  0.0075006267756166  0.2556756259967443
  0.2595003878259590  0.0026539117359334  0.2389229380538893
  0.4976921591700929  0.9989245724483879  0.2611563560405159
  0.7481843471975296  0.0006985874441270  0.2477078857922592
  0.9950252615576645  0.2667793111748651  0.2443622270618491
  0.2513163757725465  0.2368754979161949  0.2508632150670635
  0.4995354830287511  0.2581959550021935  0.2515948693993479
  0.7510736606849804  0.2487023240834105  0.2462138373680318
  0.0044781925757036  0.5011583830857163  0.2539980028004791
  0.2456517657578345  0.5084508596257109  0.2336749513027669
  0.4982184001615764  0.4985877755689714  0.2556256597475439
  0.7544081304737915  0.4847419833788749  0.2558992986020030
  0.9984249376153329  0.7466941984798225  0.2556768057734189
  0.2560608394418580  0.7370901016771683  0.2560206742017357
  0.5086833573759435  0.7507611115652679  0.2471609960957721
  0.7462062395954661  0.7437478230287411  0.2523155946249602
  0.0077875512430055  0.0002587922720494  0.4977570968375886
  0.2460978391836193  0.0079561795470298  0.5001216878350405
  0.4947788990477235  0.0113007907364562  0.5076255959126712
  0.7357762836308481  0.0079385667042970  0.5111031143895701
  0.9977259578444588  0.2588812150938651  0.5043508684738285
  0.2370073926251450  0.2634973905471583  0.4850203094095775
  0.5014592537876226  0.2415953460508220  0.5035252791616713
  0.7474243306458135  0.2544693866434287  0.5063711041250443
  0.9994735049233370  0.5144169236356859  0.4994044364793098
  0.2412957947811094  0.4892401565829445  0.5172663095192576
  0.5036806729476950  0.5011718769881526  0.5055296224102577
  0.7493076409539157  0.5039585225639058  0.4968039701595401
  0.9917774554515830  0.7499530908235812  0.5066102736000175
  0.2581539167800315  0.7298954721871524  0.5003436116460094
  0.5073143885385250  0.7464462023458793  0.4952174320344582
  0.7433943866877826  0.7609567034456788  0.4906420175138848
  0.0075031314495604  0.9892665671395164  0.7428761566465738
  0.2643435262683411  0.9997374106699084  0.7391601669671459
  0.5006049937434796  0.0084712562395381  0.7417523669239117
  0.7512058821953431  0.9980533339454780  0.7491261084871894
  0.0085571904655097  0.2460053441367762  0.7457336440193245
  0.2478716518741635  0.2486367634759930  0.7477435192029773
  0.4943609715883497  0.2471831222103447  0.7682650457231261
  0.7611104731371938  0.2521357467027769  0.7502850033491058
  0.9894914907355243  0.4999305663912708  0.7507180951991046
  0.2515254406944578  0.4956501231913890  0.7492922102800890
  0.5115223678995306  0.4928667824436204  0.7539410076136761
  0.7567542223033001  0.4969680236686855  0.7467106713688239
  0.0004254741676775  0.7521136309932288  0.7467312431121726
  0.2606598766064465  0.7462398147388214  0.7405286668749156
  0.5061706943481994  0.7515486755896461  0.7444387365506344
  0.7420396365498547  0.7483729101930550  0.7500943732286274
  0.0533860326075768  0.0604760541284364  0.0611843542399768
  0.3149780715324795  0.0770070693016578  0.0551191277790153
  0.5589114399747430  0.0586265978564597  0.0689340439348527
  0.8113916761251829  0.0613384863161386  0.0557890101105585
  0.0631554238263874  0.3130046268109083  0.0604823615932304
  0.3152450404064737  0.3040346024794331  0.0719324414478493
  0.5699773127809493  0.3141607451925097  0.0626945863764661
  0.8088385168130046  0.3206224760776379  0.0688135925240587
  0.0644062378050521  0.5753026181988687  0.0598053434714743
  0.3127071893632376  0.5588036240523806  0.0667878757240956
  0.5638520366233024  0.5640288089479739  0.0748067694631729
  0.8137832857805307  0.5652800636880784  0.0717458422547139
  0.0663504424499166  0.7981605778316450  0.0743416628034623
  0.3041603936392150  0.8149613198426806  0.0677254155345253
  0.5665779350107485  0.8093243264407235  0.0617376814040185
  0.8101183806369363  0.8165874318239332  0.0661884808033975
  0.0693877947822656  0.0706664077910872  0.3009641713688254
  0.3156276602470030  0.0672566295990222  0.3156575099016834
  0.5693426252695133  0.0585692154135700  0.3091132918883304
  0.8092609445344863  0.0584804408636614  0.3102141796128350
  0.0641465011691338  0.3001889254676371  0.3199047955391450
  0.3196252851321333  0.3125313164474832  0.3130815983235280
  0.5696293542514610  0.3194271325398788  0.2978817433353242
  0.8021486639677917  0.3133758047370776  0.3130686228836836
  0.0603988467984138  0.5662470303240354  0.3139737154488529
  0.3207174496824550  0.5590509167878821  0.3177561205678217
  0.5565489873406690  0.5687137394993300  0.3084257312076559
  0.8167816377578276  0.5646258871420216  0.3035867305637012
  0.0722172742709901  0.8025258479214230  0.3043346339237729
  0.3163161938686727  0.8129281612284913  0.3160919724390254
  0.5616896997219811  0.8128544320374615  0.3226186656925805
  0.8217737533014073  0.8155495679195255  0.3079232699249985
  0.0744049152260189  0.0514511285943158  0.5689283714124471
  0.3181305446865608  0.0704754439383635  0.5514118332591522
  0.5601723685047517  0.0691480802352089  0.5566859420792269
  0.8207650479064483  0.0618919068679915  0.5520368959528668
  0.0612606929721693  0.3159008299299728  0.5629699347679775
  0.3149669051091308  0.3075826197133722  0.5663046062635644
  0.5601100291641785  0.3164385627392505  0.5537480315249113
  0.8103992154357016  0.3181841815301709  0.5638389435718736
  0.0602817845070973  0.5665350496341190  0.5692592932359162
  0.3143550022425075  0.5563943705942407  0.5665969001517226
  0.5632596073186775  0.5702110829648603  0.5545765986995477
  0.8123724587754992  0.5411702869576374  0.5734403970565438
  0.0647728287587412  0.8217010689783635  0.5563932987803781
  0.3167885849281618  0.8116012546198732  0.5574454554974864
  0.5643329825586534  0.7953977467905062  0.5672513337724752
  0.8139451683366374  0.8119465319270063  0.5632909740836425
  0.0679583367846064  0.0625260209000373  0.8207515832904235
  0.3154000560234493  0.0653371449695683  0.8064236762977828
  0.5650409678740047  0.0562657955645705  0.8146148797857791
  0.8178408284934591  0.0630553737576847  0.8068752700303392
  0.0567323167636644  0.3177186160479977  0.8198642916987637
  0.3096270777071837  0.3105724708792437  0.8122229049289160
  0.5624736268065362  0.2928778614827863  0.8239495111853259
  0.8271250463894759  0.3094137289964962  0.8072191640604487
  0.0659020305707543  0.5699305580383154  0.8070081219737659
  0.3064385781737968  0.5669063530974796  0.8224059662137080
  0.5618081726343860  0.5577093422709041  0.8182756437738661
  0.8083560096188123  0.5643238408988225  0.8076431416353813
  0.0611230821928572  0.8071073385815737  0.8111268396504414
  0.3157115473313397  0.8118420225046705  0.8050260338544035
  0.5674823106743858  0.8100724248939528  0.8159160308472551
  0.8095988167141357  0.8175219822407058  0.8175030874588529
 
  0.00000000E+00  0.00000000E+00  0.00000000E+00
  0.00000000E+00  0.00000000E+00  0.00000000E+00
  0.00000000E+00  0.00000000E+00  0.00000000E+00
  0.00000000E+00  0.00000000E+00  0.00000000E+00
  0.00000000E+00  0.00000000E+00  0.00000000E+00
  0.00000000E+00  0.00000000E+00  0.00000000E+00
  0.00000000E+00  0.00000000E+00  0.00000000E+00
  0.00000000E+00  0.00000000E+00  0.00000000E+00
  0.00000000E+00  0.00000000E+00  0.00000000E+00
  0.00000000E+00  0.00000000E+00  0.00000000E+00
  0.00000000E+00  0.00000000E+00  0.00000000E+00
  0.00000000E+00  0.00000000E+00  0.00000000E+00
  0.00000000E+00  0.00000000E+00  0.00000000E+00
  0.00000000E+00  0.00000000E+00  0.00000000E+00
  0.00000000E+00  0.00000000E+00  0.00000000E+00
  0.00000000E+00  0.00000000E+00  0.00000000E+00
  0.00000000E+00  0.00000000E+00  0.00000000E+00
  0.00000000E+00  0.00000000E+00  0.00000000E+00
  0.00000000E+00  0.00000000E+00  0.00000000E+00
  0.00000000E+00  0.00000000E+00  0.00000000E+00
  0.00000000E+00  0.00000000E+00  0.00000000E+00
  0.00000000E+00  0.00000000E+00  0.00000000E+00
  0.00000000E+00  0.00000000E+00  0.00000000E+00
  0.00000000E+00  0.00000000E+00  0.00000000E+00
  0.00000000E+00  0.00000000E+00  0.00000000E+00
  0.00000000E+00  0.00000000E+00  0.00000000E+00
  0.00000000E+00  0.00000000E+00  0.00000000E+00
  0.00000000E+00  0.00000000E+00  0.00000000E+00
  0.00000000E+00  0.00000000E+00  0.00000000E+00
  0.00000000E+00  0.00000000E+00  0.00000000E+00
  0.00000000E+00  0.00000000E+00  0.00000000E+00
  0.00000000E+00  0.00000000E+00  0.00000000E+00
  0.00000000E+00  0.00000000E+00  0.00000000E+00
  0.00000000E+00  0.00000000E+00  0.00000000E+00
  0.00000000E+00  0.00000000E+00  0.00000000E+00
  0.00000000E+00  0.00000000E+00  0.00000000E+00
  0.00000000E+00  0.00000000E+00  0.00000000E+00
  0.00000000E+00  0.00000000E+00  0.00000000E+00
  0.00000000E+00  0.00000000E+00  0.00000000E+00
  0.00000000E+00  0.00000000E+00  0.00000000E+00
  0.00000000E+00  0.00000000E+00  0.00000000E+00
  0.00000000E+00  0.00000000E+00  0.00000000E+00
  0.00000000E+00  0.00000000E+00  0.00000000E+00
  0.00000000E+00  0.00000000E+00  0.00000000E+00
  0.00000000E+00  0.00000000E+00  0.00000000E+00
  0.00000000E+00  0.00000000E+00  0.00000000E+00
  0.00000000E+00  0.00000000E+00  0.00000000E+00
  0.00000000E+00  0.00000000E+00  0.00000000E+00
  0.00000000E+00  0.00000000E+00  0.00000000E+00
  0.00000000E+00  0.00000000E+00  0.00000000E+00
  0.00000000E+00  0.00000000E+00  0.00000000E+00
  0.00000000E+00  0.00000000E+00  0.00000000E+00
  0.00000000E+00  0.00000000E+00  0.00000000E+00
  0.00000000E+00  0.00000000E+00  0.00000000E+00
  0.00000000E+00  0.00000000E+00  0.00000000E+00
  0.00000000E+00  0.00000000E+00  0.00000000E+00
  0.00000000E+00  0.00000000E+00  0.00000000E+00
  0.00000000E+00  0.00000000E+00  0.00000000E+00
  0.00000000E+00  0.00000000E+00  0.00000000E+00
  0.00000000E+00  0.00000000E+00  0.00000000E+00
  0.00000000E+00  0.00000000E+00  0.00000000E+00
  0.00000000E+00  0.00000000E+00  0.00000000E+00
  0.00000000E+00  0.00000000E+00  0.00000000E+00
  0.00000000E+00  0.00000000E+00  0.00000000E+00
  0.00000000E+00  0.00000000E+00  0.00000000E+00
  0.00000000E+00  0.00000000E+00  0.00000000E+00
  0.00000000E+00  0.00000000E+00  0.00000000E+00
  0.00000000E+00  0.00000000E+00  0.00000000E+00
  0.00000000E+00  0.00000000E+00  0.00000000E+00
  0.00000000E+00  0.00000000E+00  0.00000000E+00
  0.00000000E+00  0.00000000E+00  0.00000000E+00
  0.00000000E+00  0.00000000E+00  0.00000000E+00
  0.00000000E+00  0.00000000E+00  0.00000000E+00
  0.00000000E+00  0.00000000E+00  0.00000000E+00
  0.00000000E+00  0.00000000E+00  0.00000000E+00
  0.00000000E+00  0.00000000E+00  0.00000000E+00
  0.00000000E+00  0.00000000E+00  0.00000000E+00
  0.00000000E+00  0.00000000E+00  0.00000000E+00
  0.00000000E+00  0.00000000E+00  0.00000000E+00
  0.00000000E+00  0.00000000E+00  0.00000000E+00
  0.00000000E+00  0.00000000E+00  0.00000000E+00
  0.00000000E+00  0.00000000E+00  0.00000000E+00
  0.00000000E+00  0.00000000E+00  0.00000000E+00
  0.00000000E+00  0.00000000E+00  0.00000000E+00
  0.00000000E+00  0.00000000E+00  0.00000000E+00
  0.00000000E+00  0.00000000E+00  0.00000000E+00
  0.00000000E+00  0.00000000E+00  0.00000000E+00
  0.00000000E+00  0.00000000E+00  0.00000000E+00
  0.00000000E+00  0.00000000E+00  0.00000000E+00
  0.00000000E+00  0.00000000E+00  0.00000000E+00
  0.00000000E+00  0.00000000E+00  0.00000000E+00
  0.00000000E+00  0.00000000E+00  0.00000000E+00
  0.00000000E+00  0.00000000E+00  0.00000000E+00
  0.00000000E+00  0.00000000E+00  0.00000000E+00
  0.00000000E+00  0.00000000E+00  0.00000000E+00
  0.00000000E+00  0.00000000E+00  0.00000000E+00
  0.00000000E+00  0.00000000E+00  0.00000000E+00
  0.00000000E+00  0.00000000E+00  0.00000000E+00
  0.00000000E+00  0.00000000E+00  0.00000000E+00
  0.00000000E+00  0.00000000E+00  0.00000000E+00
  0.00000000E+00  0.00000000E+00  0.00000000E+00
  0.00000000E+00  0.00000000E+00  0.00000000E+00
  0.00000000E+00  0.00000000E+00  0.00000000E+00
  0.00000000E+00  0.00000000E+00  0.00000000E+00
  0.00000000E+00  0.00000000E+00  0.00000000E+00
  0.00000000E+00  0.00000000E+00  0.00000000E+00
  0.00000000E+00  0.00000000E+00  0.00000000E+00
  0.00000000E+00  0.00000000E+00  0.00000000E+00
  0.00000000E+00  0.00000000E+00  0.00000000E+00
  0.00000000E+00  0.00000000E+00  0.00000000E+00
  0.00000000E+00  0.00000000E+00  0.00000000E+00
  0.00000000E+00  0.00000000E+00  0.00000000E+00
  0.00000000E+00  0.00000000E+00  0.00000000E+00
  0.00000000E+00  0.00000000E+00  0.00000000E+00
  0.00000000E+00  0.00000000E+00  0.00000000E+00
  0.00000000E+00  0.00000000E+00  0.00000000E+00
  0.00000000E+00  0.00000000E+00  0.00000000E+00
  0.00000000E+00  0.00000000E+00  0.00000000E+00
  0.00000000E+00  0.00000000E+00  0.00000000E+00
  0.00000000E+00  0.00000000E+00  0.00000000E+00
  0.00000000E+00  0.00000000E+00  0.00000000E+00
  0.00000000E+00  0.00000000E+00  0.00000000E+00
  0.00000000E+00  0.00000000E+00  0.00000000E+00
  0.00000000E+00  0.00000000E+00  0.00000000E+00
  0.00000000E+00  0.00000000E+00  0.00000000E+00
  0.00000000E+00  0.00000000E+00  0.00000000E+00
  0.00000000E+00  0.00000000E+00  0.00000000E+00
  0.00000000E+00  0.00000000E+00  0.00000000E+00
