kk
 1.0000000000000000
     0.0000000000000000   10.9373336906932952   10.9373336906932952
    10.9373336906932952    0.0000000000000000   10.9373336906932952
    10.9373336906932952   10.9373336906932952    0.0000000000000000
 128
Direct
  0.9920356038200780  0.0066536790003912  0.9988296117067500
  0.2412205768145635  0.0002048193540783  0.0002127231840879
  0.4974348433107056  0.0054694819673825  0.9909101010629201
  0.7507971938292052  0.9937122208959446  0.0004457586718469
  0.0062202032594270  0.2438996550571098  0.0013155884299301
  0.2433794835455952  0.2547316538393374  0.9969650988180536
  0.5022506046902071  0.2425643203254874  0.0089039227256728
  0.7454809406147925  0.2489809380483600  0.0061969679478597
  0.9957845494823808  0.5038912527561149  0.9950446414478744
  0.2415274858724155  0.5107321652136018  0.9990607321363462
  0.5071908309090905  0.4994223128405850  0.0026174298084932
  0.7583893197726380  0.5013791205224872  0.9922266922371271
  0.9959342647987894  0.7650148026129585  0.9969299729286133
  0.2557282280415060  0.7544477264498011  0.0018520073372409
  0.5057611117499662  0.7574444586241160  0.9973237316413737
  0.7450841553769431  0.7552026529321891  0.9965848875489524
  0.9959302256297741  0.0075006267756161  0.2556756259967471
  0.2595003878259609  0.0026539117359317  0.2389229380538927
  0.4976921591700920  0.9989245724483896  0.2611563560405173
  0.7481843471975304  0.0006985874441268  0.2477078857922564
  0.9950252615576677  0.2667793111748630  0.2443622270618456
  0.2513163757725459  0.2368754979161920  0.2508632150670645
  0.4995354830287526  0.2581959550021938  0.2515948693993489
  0.7510736606849779  0.2487023240834079  0.2462138373680310
  0.0044781925757051  0.5011583830857146  0.2539980028004822
  0.2456517657578311  0.5084508596257139  0.2336749513027666
  0.4982184001615728  0.4985877755689695  0.2556256597475440
  0.7544081304737916  0.4847419833788776  0.2558992986020032
  0.9984249376153317  0.7466941984798254  0.2556768057734212
  0.2560608394418565  0.7370901016771708  0.2560206742017322
  0.5086833573759403  0.7507611115652657  0.2471609960957740
  0.7462062395954676  0.7437478230287421  0.2523155946249618
  0.0077875512430030  0.0002587922720499  0.4977570968375868
  0.2460978391836217  0.0079561795470315  0.5001216878350440
  0.4947788990477250  0.0113007907364553  0.5076255959126719
  0.7357762836308511  0.0079385667042980  0.5111031143895673
  0.9977259578444576  0.2588812150938626  0.5043508684738295
  0.2370073926251478  0.2634973905471548  0.4850203094095761
  0.5014592537876210  0.2415953460508229  0.5035252791616734
  0.7474243306458117  0.2544693866434301  0.5063711041250460
  0.9994735049233335  0.5144169236356860  0.4994044364793124
  0.2412957947811084  0.4892401565829449  0.5172663095192563
  0.5036806729476925  0.5011718769881547  0.5055296224102597
  0.7493076409539122  0.5039585225639043  0.4968039701595388
  0.9917774554515816  0.7499530908235780  0.5066102736000146
  0.2581539167800336  0.7298954721871496  0.5003436116460060
  0.5073143885385236  0.7464462023458767  0.4952174320344573
  0.7433943866877792  0.7609567034456788  0.4906420175138867
  0.0075031314495627  0.9892665671395199  0.7428761566465772
  0.2643435262683398  0.9997374106699101  0.7391601669671443
  0.5006049937434812  0.0084712562395362  0.7417523669239107
  0.7512058821953409  0.9980533339454760  0.7491261084871929
  0.0085571904655101  0.2460053441367793  0.7457336440193235
  0.2478716518741623  0.2486367634759957  0.7477435192029805
  0.4943609715883491  0.2471831222103425  0.7682650457231296
  0.7611104731371950  0.2521357467027734  0.7502850033491042
  0.9894914907355240  0.4999305663912713  0.7507180951991058
  0.2515254406944574  0.4956501231913859  0.7492922102800897
  0.5115223678995309  0.4928667824436183  0.7539410076136787
  0.7567542223033012  0.4969680236686848  0.7467106713688261
  0.0004254741676744  0.7521136309932270  0.7467312431121700
  0.2606598766064431  0.7462398147388222  0.7405286668749125
  0.5061706943481986  0.7515486755896434  0.7444387365506322
  0.7420396365498563  0.7483729101930523  0.7500943732286283
  0.0533860326075735  0.0604760541284339  0.0611843542399736
  0.3149780715324815  0.0770070693016554  0.0551191277790151
  0.5589114399747418  0.0586265978564575  0.0689340439348551
  0.8113916761251800  0.0613384863161392  0.0557890101105571
  0.0631554238263862  0.3130046268109054  0.0604823615932330
  0.3152450404064704  0.3040346024794334  0.0719324414478475
  0.5699773127809513  0.3141607451925108  0.0626945863764667
  0.8088385168130037  0.3206224760776349  0.0688135925240612
  0.0644062378050527  0.5753026181988676  0.0598053434714735
  0.3127071893632392  0.5588036240523829  0.0667878757240977
  0.5638520366233029  0.5640288089479722  0.0748067694631733
  0.8137832857805272  0.5652800636880809  0.0717458422547171
  0.0663504424499174  0.7981605778316471  0.0743416628034604
  0.3041603936392181  0.8149613198426774  0.0677254155345223
  0.5665779350107474  0.8093243264407228  0.0617376814040177
  0.8101183806369340  0.8165874318239321  0.0661884808033973
  0.0693877947822660  0.0706664077910847  0.3009641713688250
  0.3156276602469997  0.0672566295990220  0.3156575099016810
  0.5693426252695126  0.0585692154135709  0.3091132918883315
  0.8092609445344844  0.0584804408636600  0.3102141796128341
  0.0641465011691372  0.3001889254676373  0.3199047955391445
  0.3196252851321363  0.3125313164474867  0.3130815983235312
  0.5696293542514628  0.3194271325398768  0.2978817433353266
  0.8021486639677914  0.3133758047370762  0.3130686228836805
  0.0603988467984103  0.5662470303240336  0.3139737154488532
  0.3207174496824557  0.5590509167878834  0.3177561205678214
  0.5565489873406667  0.5687137394993297  0.3084257312076546
  0.8167816377578273  0.5646258871420199  0.3035867305637007
  0.0722172742709868  0.8025258479214256  0.3043346339237729
  0.3163161938686712  0.8129281612284885  0.3160919724390276
  0.5616896997219829  0.8128544320374604  0.3226186656925790
  0.8217737533014068  0.8155495679195289  0.3079232699249997
  0.0744049152260209  0.0514511285943186  0.5689283714124443
  0.3181305446865594  0.0704754439383642  0.5514118332591529
  0.5601723685047498  0.0691480802352122  0.5566859420792254
  0.8207650479064466  0.0618919068679942  0.5520368959528646
  0.0612606929721728  0.3159008299299705  0.5629699347679782
  0.3149669051091302  0.3075826197133756  0.5663046062635675
  0.5601100291641763  0.3164385627392520  0.5537480315249138
  0.8103992154357038  0.3181841815301696  0.5638389435718760
  0.0602817845070945  0.5665350496341184  0.5692592932359176
  0.3143550022425040  0.5563943705942379  0.5665969001517207
  0.5632596073186769  0.5702110829648601  0.5545765986995476
  0.8123724587755010  0.5411702869576346  0.5734403970565434
  0.0647728287587443  0.8217010689783608  0.5563932987803814
  0.3167885849281638  0.8116012546198759  0.5574454554974891
  0.5643329825586513  0.7953977467905077  0.5672513337724781
  0.8139451683366397  0.8119465319270049  0.5632909740836403
  0.0679583367846072  0.0625260209000401  0.8207515832904210
  0.3154000560234466  0.0653371449695708  0.8064236762977848
  0.5650409678740014  0.0562657955645674  0.8146148797857824
  0.8178408284934596  0.0630553737576825  0.8068752700303363
  0.0567323167636612  0.3177186160479964  0.8198642916987665
  0.3096270777071851  0.3105724708792428  0.8122229049289165
  0.5624736268065346  0.2928778614827862  0.8239495111853280
  0.8271250463894759  0.3094137289964971  0.8072191640604488
  0.0659020305707547  0.5699305580383173  0.8070081219737635
  0.3064385781737966  0.5669063530974815  0.8224059662137109
  0.5618081726343842  0.5577093422709042  0.8182756437738691
  0.8083560096188132  0.5643238408988225  0.8076431416353785
  0.0611230821928560  0.8071073385815752  0.8111268396504440
  0.3157115473313370  0.8118420225046729  0.8050260338544019
  0.5674823106743870  0.8100724248939537  0.8159160308472577
  0.8095988167141381  0.8175219822407043  0.8175030874588509
