kk                                      
   1.00000000000000     
     0.0000000000000000   10.9373336906932952   10.9373336906932952
    10.9373336906932952    0.0000000000000000   10.9373336906932952
    10.9373336906932952   10.9373336906932952    0.0000000000000000
   Si
   128
Direct
  0.0077766912569501  0.9953268070217192  0.0022048547670011
  0.2495391094517245  0.9966213260761521  0.0086947353222158
  0.5014853014426421  0.0102206783285652  0.9926379080069125
  0.7579576434142226  0.9991711660569607  0.9979277868474199
  0.0067274013827330  0.2503993994293197  0.9980271427129495
  0.2554377942927886  0.2435633671927562  0.0000209582109392
  0.4854596764662062  0.2552140469334105  0.0050095481183590
  0.7442535235683465  0.2408100442426999  0.9964900730168225
  0.9984196878770959  0.4935016952336539  0.9960549930786371
  0.2503087568531228  0.4955829620594514  0.9982029752534771
  0.4936608407906959  0.4960180495228670  0.9933243277587422
  0.7452750228514660  0.5035281844179309  0.0008692988808576
  0.0048526971715077  0.7429242361935877  0.9895290320485799
  0.2493458128778769  0.7383795928977861  0.0093184318144282
  0.4943661444623615  0.7563463204226721  0.0004090582051575
  0.7465601426070236  0.7472328152844412  0.9992646357839590
  0.0122574622758407  0.9845563709105534  0.2549922694726092
  0.2555566930099786  0.9861674481898035  0.2578604679315362
  0.5042657083615012  0.0030830532662804  0.2508936493898659
  0.7510038654503006  0.9956673167495111  0.2534038737698197
  0.0015124997330602  0.2525821976932150  0.2463968982859797
  0.2457247308062094  0.2386812067209831  0.2527364984259748
  0.4946080485721964  0.2505863633742891  0.2521117812401883
  0.7652556689615793  0.2498023477312259  0.2338557618228165
  0.0031020416474377  0.4929985472628360  0.2493098336421014
  0.2405754661086945  0.5057984337826440  0.2487849840578491
  0.5025791860874307  0.4993887524969765  0.2471242356208521
  0.7423592578384657  0.4931876809768596  0.2667536089943923
  0.9968786606147546  0.7508422434053941  0.2528360572339778
  0.2508469606759789  0.7459367490078819  0.2554975816431195
  0.4989479505350403  0.7435232376626502  0.2557124627864837
  0.7528896776810825  0.7385927080955952  0.2517900205261583
  0.9971042622790378  0.0172625753999966  0.4920734883662021
  0.2421722445974055  0.0051730824369756  0.4981366995676098
  0.5108350453991122  0.9945235228697555  0.4976821933419444
  0.7515853007533622  0.0081036082196277  0.4896277290688218
  0.0063590488512730  0.2524939640626869  0.4920653161324253
  0.2540588489153564  0.2490688419725373  0.5055615656116927
  0.4925575524395853  0.2454508738188608  0.5137519718742709
  0.7503017228089846  0.2514783105562799  0.5044444008040756
  0.9992169706929488  0.5010769845924798  0.5023921812597294
  0.2558000629748278  0.5067721382902803  0.4919831257331708
  0.4966723896665641  0.4901064297686091  0.5067007097439742
  0.7483332612602851  0.5013595980310583  0.4962399397658857
  0.9981713284724805  0.7385758208187596  0.5016941110512789
  0.2450307404996721  0.7479680664523798  0.5053333957260904
  0.4925619468389044  0.7403222529849600  0.5066386048805356
  0.7438839430947723  0.7506784583498316  0.5097735794274598
  0.9996831816520100  0.0021363736623741  0.7565833836715399
  0.2409528136349266  0.0041671149356759  0.7460177983166645
  0.4927381726865292  0.0137702494495144  0.7391850248398271
  0.7488678977163161  0.0075213910291581  0.7394613878714225
  0.9992894222453543  0.2593154845655548  0.7381499899908164
  0.2513145902098302  0.2533786963807074  0.7461123709596507
  0.4953587734222538  0.2578830352003862  0.7548515927819892
  0.7363389819882755  0.2571612914977024  0.7526222438675063
  0.9957838771546221  0.5117275681127751  0.7508856297985531
  0.2483763423647147  0.4917235830390396  0.7467960681106973
  0.4945200931954190  0.5088763434592423  0.7417117357254455
  0.7588171029963036  0.4921823414181716  0.7558208762305725
  0.0003289928008456  0.7437127620443960  0.7468525362298948
  0.2520710853565049  0.7392701332172393  0.7623658874960739
  0.4966574815474019  0.7530189783598118  0.7484713754535193
  0.7459087836917888  0.7657592114324387  0.7452654718008489
  0.0587969838701952  0.0614567728902742  0.0572441572748801
  0.3190367272363801  0.0632890722083985  0.0561907584973582
  0.5610153639872379  0.0497974854332099  0.0719371951368828
  0.8184730978200179  0.0531324687965338  0.0647100957464346
  0.0717407205516309  0.3116965997753596  0.0550428915943328
  0.3048218171665056  0.3100448737797734  0.0699517132319016
  0.5571263198803820  0.3164512715295373  0.0672338227775029
  0.8106141512932865  0.3062142688923757  0.0581494326003167
  0.0632656106241640  0.5675354313823746  0.0529621493262624
  0.3117521065021975  0.5580373613325733  0.0606909817298771
  0.5661945842611402  0.5546490725896049  0.0682341541754283
  0.8055511092706027  0.5598754442998271  0.0660321343389256
  0.0634136259120623  0.8057694157542343  0.0616719692718561
  0.3137967065449274  0.8137934625863821  0.0501685926516657
  0.5613303646477803  0.8042700783782664  0.0561384263443045
  0.8098073180710159  0.8115709717678001  0.0719165077568036
  0.0570480847535748  0.0621853897232327  0.3203307525832884
  0.3038552402542152  0.0609286909943094  0.3161841845944124
  0.5714411551896745  0.0640318033832372  0.2991915191234540
  0.8062489722100139  0.0641470169916829  0.3150406207902137
  0.0683056790410319  0.3153474209571741  0.3068840074881436
  0.3195634282958011  0.3089966338718924  0.3054095462640802
  0.5652981276833557  0.3121235641030324  0.3208049615565827
  0.8167051043405777  0.3068364910563588  0.3148706596296336
  0.0598519551572991  0.5700931458307394  0.3240003836518284
  0.3177215966661180  0.5553649336605133  0.3143760714518891
  0.5595154922030900  0.5594160613945647  0.3162705629028011
  0.8163688470363866  0.5507819155128217  0.3088446710652875
  0.0633814555369199  0.8066949661300598  0.3156019197876461
  0.3116518235464625  0.8130725249558779  0.3096052906132840
  0.5576926052333562  0.8158786763559149  0.3147144571837899
  0.8078737269729857  0.8233804569292928  0.3179334213279148
  0.0650571569392397  0.0548101158775864  0.5626082241688763
  0.3061199519556510  0.0738142512885958  0.5489889860544537
  0.5561544098034474  0.0623083079093334  0.5660097787907716
  0.8163848717329643  0.0655442180454600  0.5595487760872544
  0.0538963648988400  0.3262133217961747  0.5583564675865276
  0.3123733015470336  0.3192278456480366  0.5696160004826112
  0.5645408122413684  0.3089770778448724  0.5606538950718800
  0.8125612035010192  0.3058552144863143  0.5731682804180736
  0.0536314357523011  0.5600946339076742  0.5644206114842660
  0.3178906222799327  0.5547284019542147  0.5643602658625326
  0.5632742486008908  0.5626098300295297  0.5590714280885223
  0.8035056917209857  0.5629941440529436  0.5683936876004552
  0.0637605887111832  0.8212474377306549  0.5587508152886329
  0.3140649686343551  0.8047072403120481  0.5751132169196680
  0.5527977003320430  0.8111824124195621  0.5696507215514259
  0.8206231220094082  0.8007516422238723  0.5687655492188100
  0.0661001837677659  0.0659057539985852  0.8113153763756316
  0.3158905290459586  0.0759553327109899  0.7994099455220791
  0.5632582561542989  0.0546232392521091  0.8134436628606707
  0.8205254770082107  0.0583319094457266  0.8107116969371830
  0.0637891474060908  0.3048723147194252  0.8117512773567270
  0.3242752566285745  0.3155387734486723  0.8133604643696657
  0.5653036873674040  0.2998918996828976  0.8191019807783988
  0.8025719760618486  0.3247916833833102  0.8165741788224494
  0.0593568119886214  0.5691871508736881  0.8081219411815113
  0.3175734600442439  0.5619730575374575  0.8115719874988798
  0.5622603834742321  0.5550285498591165  0.8172856866656133
  0.8135590747303496  0.5702116675306002  0.8128496680627748
  0.0485740614761241  0.8238597303554229  0.8161752931043367
  0.3114776486491593  0.8139816381743117  0.8192147015460662
  0.5607397444513040  0.8097720236702060  0.8092216151638425
  0.8070626137801469  0.8279799741131271  0.8104377666112939
 
  0.00000000E+00  0.00000000E+00  0.00000000E+00
  0.00000000E+00  0.00000000E+00  0.00000000E+00
  0.00000000E+00  0.00000000E+00  0.00000000E+00
  0.00000000E+00  0.00000000E+00  0.00000000E+00
  0.00000000E+00  0.00000000E+00  0.00000000E+00
  0.00000000E+00  0.00000000E+00  0.00000000E+00
  0.00000000E+00  0.00000000E+00  0.00000000E+00
  0.00000000E+00  0.00000000E+00  0.00000000E+00
  0.00000000E+00  0.00000000E+00  0.00000000E+00
  0.00000000E+00  0.00000000E+00  0.00000000E+00
  0.00000000E+00  0.00000000E+00  0.00000000E+00
  0.00000000E+00  0.00000000E+00  0.00000000E+00
  0.00000000E+00  0.00000000E+00  0.00000000E+00
  0.00000000E+00  0.00000000E+00  0.00000000E+00
  0.00000000E+00  0.00000000E+00  0.00000000E+00
  0.00000000E+00  0.00000000E+00  0.00000000E+00
  0.00000000E+00  0.00000000E+00  0.00000000E+00
  0.00000000E+00  0.00000000E+00  0.00000000E+00
  0.00000000E+00  0.00000000E+00  0.00000000E+00
  0.00000000E+00  0.00000000E+00  0.00000000E+00
  0.00000000E+00  0.00000000E+00  0.00000000E+00
  0.00000000E+00  0.00000000E+00  0.00000000E+00
  0.00000000E+00  0.00000000E+00  0.00000000E+00
  0.00000000E+00  0.00000000E+00  0.00000000E+00
  0.00000000E+00  0.00000000E+00  0.00000000E+00
  0.00000000E+00  0.00000000E+00  0.00000000E+00
  0.00000000E+00  0.00000000E+00  0.00000000E+00
  0.00000000E+00  0.00000000E+00  0.00000000E+00
  0.00000000E+00  0.00000000E+00  0.00000000E+00
  0.00000000E+00  0.00000000E+00  0.00000000E+00
  0.00000000E+00  0.00000000E+00  0.00000000E+00
  0.00000000E+00  0.00000000E+00  0.00000000E+00
  0.00000000E+00  0.00000000E+00  0.00000000E+00
  0.00000000E+00  0.00000000E+00  0.00000000E+00
  0.00000000E+00  0.00000000E+00  0.00000000E+00
  0.00000000E+00  0.00000000E+00  0.00000000E+00
  0.00000000E+00  0.00000000E+00  0.00000000E+00
  0.00000000E+00  0.00000000E+00  0.00000000E+00
  0.00000000E+00  0.00000000E+00  0.00000000E+00
  0.00000000E+00  0.00000000E+00  0.00000000E+00
  0.00000000E+00  0.00000000E+00  0.00000000E+00
  0.00000000E+00  0.00000000E+00  0.00000000E+00
  0.00000000E+00  0.00000000E+00  0.00000000E+00
  0.00000000E+00  0.00000000E+00  0.00000000E+00
  0.00000000E+00  0.00000000E+00  0.00000000E+00
  0.00000000E+00  0.00000000E+00  0.00000000E+00
  0.00000000E+00  0.00000000E+00  0.00000000E+00
  0.00000000E+00  0.00000000E+00  0.00000000E+00
  0.00000000E+00  0.00000000E+00  0.00000000E+00
  0.00000000E+00  0.00000000E+00  0.00000000E+00
  0.00000000E+00  0.00000000E+00  0.00000000E+00
  0.00000000E+00  0.00000000E+00  0.00000000E+00
  0.00000000E+00  0.00000000E+00  0.00000000E+00
  0.00000000E+00  0.00000000E+00  0.00000000E+00
  0.00000000E+00  0.00000000E+00  0.00000000E+00
  0.00000000E+00  0.00000000E+00  0.00000000E+00
  0.00000000E+00  0.00000000E+00  0.00000000E+00
  0.00000000E+00  0.00000000E+00  0.00000000E+00
  0.00000000E+00  0.00000000E+00  0.00000000E+00
  0.00000000E+00  0.00000000E+00  0.00000000E+00
  0.00000000E+00  0.00000000E+00  0.00000000E+00
  0.00000000E+00  0.00000000E+00  0.00000000E+00
  0.00000000E+00  0.00000000E+00  0.00000000E+00
  0.00000000E+00  0.00000000E+00  0.00000000E+00
  0.00000000E+00  0.00000000E+00  0.00000000E+00
  0.00000000E+00  0.00000000E+00  0.00000000E+00
  0.00000000E+00  0.00000000E+00  0.00000000E+00
  0.00000000E+00  0.00000000E+00  0.00000000E+00
  0.00000000E+00  0.00000000E+00  0.00000000E+00
  0.00000000E+00  0.00000000E+00  0.00000000E+00
  0.00000000E+00  0.00000000E+00  0.00000000E+00
  0.00000000E+00  0.00000000E+00  0.00000000E+00
  0.00000000E+00  0.00000000E+00  0.00000000E+00
  0.00000000E+00  0.00000000E+00  0.00000000E+00
  0.00000000E+00  0.00000000E+00  0.00000000E+00
  0.00000000E+00  0.00000000E+00  0.00000000E+00
  0.00000000E+00  0.00000000E+00  0.00000000E+00
  0.00000000E+00  0.00000000E+00  0.00000000E+00
  0.00000000E+00  0.00000000E+00  0.00000000E+00
  0.00000000E+00  0.00000000E+00  0.00000000E+00
  0.00000000E+00  0.00000000E+00  0.00000000E+00
  0.00000000E+00  0.00000000E+00  0.00000000E+00
  0.00000000E+00  0.00000000E+00  0.00000000E+00
  0.00000000E+00  0.00000000E+00  0.00000000E+00
  0.00000000E+00  0.00000000E+00  0.00000000E+00
  0.00000000E+00  0.00000000E+00  0.00000000E+00
  0.00000000E+00  0.00000000E+00  0.00000000E+00
  0.00000000E+00  0.00000000E+00  0.00000000E+00
  0.00000000E+00  0.00000000E+00  0.00000000E+00
  0.00000000E+00  0.00000000E+00  0.00000000E+00
  0.00000000E+00  0.00000000E+00  0.00000000E+00
  0.00000000E+00  0.00000000E+00  0.00000000E+00
  0.00000000E+00  0.00000000E+00  0.00000000E+00
  0.00000000E+00  0.00000000E+00  0.00000000E+00
  0.00000000E+00  0.00000000E+00  0.00000000E+00
  0.00000000E+00  0.00000000E+00  0.00000000E+00
  0.00000000E+00  0.00000000E+00  0.00000000E+00
  0.00000000E+00  0.00000000E+00  0.00000000E+00
  0.00000000E+00  0.00000000E+00  0.00000000E+00
  0.00000000E+00  0.00000000E+00  0.00000000E+00
  0.00000000E+00  0.00000000E+00  0.00000000E+00
  0.00000000E+00  0.00000000E+00  0.00000000E+00
  0.00000000E+00  0.00000000E+00  0.00000000E+00
  0.00000000E+00  0.00000000E+00  0.00000000E+00
  0.00000000E+00  0.00000000E+00  0.00000000E+00
  0.00000000E+00  0.00000000E+00  0.00000000E+00
  0.00000000E+00  0.00000000E+00  0.00000000E+00
  0.00000000E+00  0.00000000E+00  0.00000000E+00
  0.00000000E+00  0.00000000E+00  0.00000000E+00
  0.00000000E+00  0.00000000E+00  0.00000000E+00
  0.00000000E+00  0.00000000E+00  0.00000000E+00
  0.00000000E+00  0.00000000E+00  0.00000000E+00
  0.00000000E+00  0.00000000E+00  0.00000000E+00
  0.00000000E+00  0.00000000E+00  0.00000000E+00
  0.00000000E+00  0.00000000E+00  0.00000000E+00
  0.00000000E+00  0.00000000E+00  0.00000000E+00
  0.00000000E+00  0.00000000E+00  0.00000000E+00
  0.00000000E+00  0.00000000E+00  0.00000000E+00
  0.00000000E+00  0.00000000E+00  0.00000000E+00
  0.00000000E+00  0.00000000E+00  0.00000000E+00
  0.00000000E+00  0.00000000E+00  0.00000000E+00
  0.00000000E+00  0.00000000E+00  0.00000000E+00
  0.00000000E+00  0.00000000E+00  0.00000000E+00
  0.00000000E+00  0.00000000E+00  0.00000000E+00
  0.00000000E+00  0.00000000E+00  0.00000000E+00
  0.00000000E+00  0.00000000E+00  0.00000000E+00
  0.00000000E+00  0.00000000E+00  0.00000000E+00
  0.00000000E+00  0.00000000E+00  0.00000000E+00
