kk
 1.0000000000000000
     0.0000000000000000   10.9373336906932952   10.9373336906932952
    10.9373336906932952    0.0000000000000000   10.9373336906932952
    10.9373336906932952   10.9373336906932952    0.0000000000000000
 128
Direct
  0.0077766912569492  0.9953268070217164  0.0022048547670005
  0.2495391094517268  0.9966213260761490  0.0086947353222130
  0.5014853014426424  0.0102206783285669  0.9926379080069100
  0.7579576434142239  0.9991711660569573  0.9979277868474228
  0.0067274013827349  0.2503993994293223  0.9980271427129518
  0.2554377942927897  0.2435633671927588  0.0000209582109395
  0.4854596764662054  0.2552140469334095  0.0050095481183605
  0.7442535235683452  0.2408100442426974  0.9964900730168206
  0.9984196878770932  0.4935016952336544  0.9960549930786362
  0.2503087568531250  0.4955829620594500  0.9982029752534771
  0.4936608407906936  0.4960180495228644  0.9933243277587438
  0.7452750228514666  0.5035281844179293  0.0008692988808593
  0.0048526971715102  0.7429242361935863  0.9895290320485808
  0.2493458128778779  0.7383795928977893  0.0093184318144289
  0.4943661444623626  0.7563463204226725  0.0004090582051595
  0.7465601426070204  0.7472328152844416  0.9992646357839576
  0.0122574622758375  0.9845563709105504  0.2549922694726061
  0.2555566930099757  0.9861674481898005  0.2578604679315328
  0.5042657083615001  0.0030830532662790  0.2508936493898677
  0.7510038654503034  0.9956673167495100  0.2534038737698165
  0.0015124997330582  0.2525821976932167  0.2463968982859805
  0.2457247308062125  0.2386812067209866  0.2527364984259733
  0.4946080485721989  0.2505863633742869  0.2521117812401881
  0.7652556689615826  0.2498023477312274  0.2338557618228144
  0.0031020416474390  0.4929985472628329  0.2493098336420995
  0.2405754661086957  0.5057984337826414  0.2487849840578511
  0.5025791860874292  0.4993887524969745  0.2471242356208506
  0.7423592578384652  0.4931876809768579  0.2667536089943937
  0.9968786606147538  0.7508422434053956  0.2528360572339769
  0.2508469606759811  0.7459367490078850  0.2554975816431216
  0.4989479505350430  0.7435232376626509  0.2557124627864844
  0.7528896776810805  0.7385927080955930  0.2517900205261581
  0.9971042622790398  0.0172625753999946  0.4920734883662025
  0.2421722445974077  0.0051730824369750  0.4981366995676085
  0.5108350453991128  0.9945235228697564  0.4976821933419468
  0.7515853007533598  0.0081036082196261  0.4896277290688225
  0.0063590488512695  0.2524939640626836  0.4920653161324256
  0.2540588489153564  0.2490688419725355  0.5055615656116927
  0.4925575524395853  0.2454508738188639  0.5137519718742736
  0.7503017228089874  0.2514783105562785  0.5044444008040765
  0.9992169706929512  0.5010769845924826  0.5023921812597308
  0.2558000629748307  0.5067721382902771  0.4919831257331739
  0.4966723896665631  0.4901064297686056  0.5067007097439746
  0.7483332612602875  0.5013595980310612  0.4962399397658881
  0.9981713284724770  0.7385758208187619  0.5016941110512806
  0.2450307404996708  0.7479680664523809  0.5053333957260908
  0.4925619468389063  0.7403222529849608  0.5066386048805365
  0.7438839430947698  0.7506784583498314  0.5097735794274593
  0.9996831816520128  0.0021363736623743  0.7565833836715415
  0.2409528136349252  0.0041671149356731  0.7460177983166646
  0.4927381726865300  0.0137702494495144  0.7391850248398273
  0.7488678977163187  0.0075213910291603  0.7394613878714196
  0.9992894222453536  0.2593154845655550  0.7381499899908188
  0.2513145902098274  0.2533786963807053  0.7461123709596521
  0.4953587734222540  0.2578830352003870  0.7548515927819922
  0.7363389819882770  0.2571612914977010  0.7526222438675044
  0.9957838771546219  0.5117275681127725  0.7508856297985512
  0.2483763423647127  0.4917235830390431  0.7467960681106953
  0.4945200931954192  0.5088763434592402  0.7417117357254422
  0.7588171029963016  0.4921823414181694  0.7558208762305736
  0.0003289928008450  0.7437127620443947  0.7468525362298928
  0.2520710853565017  0.7392701332172394  0.7623658874960725
  0.4966574815474000  0.7530189783598120  0.7484713754535189
  0.7459087836917896  0.7657592114324387  0.7452654718008499
  0.0587969838701981  0.0614567728902772  0.0572441572748796
  0.3190367272363833  0.0632890722083993  0.0561907584973611
  0.5610153639872374  0.0497974854332083  0.0719371951368816
  0.8184730978200195  0.0531324687965348  0.0647100957464349
  0.0717407205516296  0.3116965997753617  0.0550428915943317
  0.3048218171665038  0.3100448737797701  0.0699517132319023
  0.5571263198803809  0.3164512715295382  0.0672338227775032
  0.8106141512932872  0.3062142688923734  0.0581494326003175
  0.0632656106241656  0.5675354313823747  0.0529621493262606
  0.3117521065021976  0.5580373613325719  0.0606909817298760
  0.5661945842611420  0.5546490725896084  0.0682341541754281
  0.8055511092706011  0.5598754442998297  0.0660321343389234
  0.0634136259120602  0.8057694157542314  0.0616719692718592
  0.3137967065449293  0.8137934625863795  0.0501685926516626
  0.5613303646477801  0.8042700783782691  0.0561384263443018
  0.8098073180710137  0.8115709717678008  0.0719165077568050
  0.0570480847535766  0.0621853897232341  0.3203307525832883
  0.3038552402542125  0.0609286909943114  0.3161841845944102
  0.5714411551896723  0.0640318033832384  0.2991915191234553
  0.8062489722100131  0.0641470169916863  0.3150406207902162
  0.0683056790410304  0.3153474209571751  0.3068840074881413
  0.3195634282958039  0.3089966338718939  0.3054095462640811
  0.5652981276833590  0.3121235641030348  0.3208049615565832
  0.8167051043405811  0.3068364910563570  0.3148706596296345
  0.0598519551573026  0.5700931458307362  0.3240003836518283
  0.3177215966661203  0.5553649336605150  0.3143760714518877
  0.5595154922030887  0.5594160613945665  0.3162705629028018
  0.8163688470363896  0.5507819155128247  0.3088446710652894
  0.0633814555369212  0.8066949661300615  0.3156019197876488
  0.3116518235464653  0.8130725249558790  0.3096052906132853
  0.5576926052333593  0.8158786763559174  0.3147144571837907
  0.8078737269729890  0.8233804569292904  0.3179334213279123
  0.0650571569392386  0.0548101158775889  0.5626082241688793
  0.3061199519556490  0.0738142512885967  0.5489889860544555
  0.5561544098034468  0.0623083079093304  0.5660097787907749
  0.8163848717329643  0.0655442180454635  0.5595487760872516
  0.0538963648988374  0.3262133217961716  0.5583564675865252
  0.3123733015470308  0.3192278456480374  0.5696160004826109
  0.5645408122413663  0.3089770778448743  0.5606538950718821
  0.8125612035010158  0.3058552144863107  0.5731682804180718
  0.0536314357523004  0.5600946339076709  0.5644206114842676
  0.3178906222799346  0.5547284019542125  0.5643602658625333
  0.5632742486008901  0.5626098300295286  0.5590714280885219
  0.8035056917209823  0.5629941440529428  0.5683936876004539
  0.0637605887111800  0.8212474377306520  0.5587508152886294
  0.3140649686343583  0.8047072403120491  0.5751132169196678
  0.5527977003320440  0.8111824124195646  0.5696507215514248
  0.8206231220094052  0.8007516422238714  0.5687655492188121
  0.0661001837677691  0.0659057539985879  0.8113153763756330
  0.3158905290459620  0.0759553327109934  0.7994099455220818
  0.5632582561542956  0.0546232392521086  0.8134436628606734
  0.8205254770082141  0.0583319094457300  0.8107116969371840
  0.0637891474060900  0.3048723147194231  0.8117512773567281
  0.3242752566285750  0.3155387734486733  0.8133604643696662
  0.5653036873674033  0.2998918996828984  0.8191019807783979
  0.8025719760618514  0.3247916833833109  0.8165741788224510
  0.0593568119886214  0.5691871508736884  0.8081219411815096
  0.3175734600442464  0.5619730575374540  0.8115719874988797
  0.5622603834742342  0.5550285498591186  0.8172856866656105
  0.8135590747303485  0.5702116675306029  0.8128496680627757
  0.0485740614761232  0.8238597303554243  0.8161752931043331
  0.3114776486491572  0.8139816381743125  0.8192147015460662
  0.5607397444513015  0.8097720236702034  0.8092216151638455
  0.8070626137801434  0.8279799741131241  0.8104377666112941
