kk                                      
   1.00000000000000     
     0.0000000000000000   10.9373336906932952   10.9373336906932952
    10.9373336906932952    0.0000000000000000   10.9373336906932952
    10.9373336906932952   10.9373336906932952    0.0000000000000000
   Si
   128
Direct
  0.9960548854772284  0.0005010280282960  0.0030676221807795
  0.2538372953901700  0.0013227173278807  0.9945987767176945
  0.5045771563355430  0.0014885140835332  0.9924616735073428
  0.7524167640626160  0.0046833702845888  0.9970313408863660
  0.0033508939068625  0.2454952386659173  0.0119524604179020
  0.2488540063478553  0.2479679115576872  0.0009850085049834
  0.5038385078161554  0.2516787624059376  0.0001374440692885
  0.7539143483428674  0.2526054892766680  0.9981956227447881
  0.9975795101134750  0.5101386073557563  0.9990934465931716
  0.2532168626224589  0.5021572811448536  0.9965886546588649
  0.5059641567924373  0.4964352681239959  0.0091913755136659
  0.7415624580764373  0.5041798913852134  0.0063208337976590
  0.0063004522830923  0.7539835007044573  0.9978428862613740
  0.2478096571637920  0.7485631709707263  0.0097051292468464
  0.4952502244675330  0.7469637817276151  0.9999544719406330
  0.7525860773764990  0.7419737504935142  0.0020526332797104
  0.0074723055691166  0.9885834663194970  0.2547026117472910
  0.2495448118534824  0.0038332363475178  0.2552112233072705
  0.5072318270058247  0.9983103027035582  0.2510218265733712
  0.7556883713858440  0.0006834385110679  0.2461105615125518
  0.0007506830449273  0.2532255311773781  0.2413613441517981
  0.2616832514528724  0.2485117687722109  0.2520119545878785
  0.4904452588541659  0.2495667314263272  0.2619769892998320
  0.7450894408637083  0.2477062322554957  0.2503797143143132
  0.0068204781870591  0.4921501711850524  0.2521152907378408
  0.2408518824445451  0.5115796194618341  0.2443689787471612
  0.5054520275810717  0.4902644043415947  0.2555580347937294
  0.7505684581930723  0.5080848904135422  0.2587545177228989
  0.0082579482067757  0.7430128769547650  0.2538333447993963
  0.2505214284985158  0.7482800436627244  0.2610271634949513
  0.4939942758811213  0.7493738501977987  0.2706858604198814
  0.7407594861777227  0.7465786502038583  0.2463788352397671
  0.9969285252056252  0.9939654766031509  0.5050191357998699
  0.2586294469141706  0.9975982421368670  0.5012182534873730
  0.4957418732140511  0.0080789170210878  0.5022310477843490
  0.7482785986545153  0.0023100676004404  0.4934939405654930
  0.9955262521583919  0.2634680074778970  0.4996057276695893
  0.2441764462748353  0.2526603171867166  0.5036468074031930
  0.5019720574624813  0.2531875730435758  0.4995517313003361
  0.7506364150617486  0.2464508267949270  0.5086783048446861
  0.0084376247936362  0.4978295126624204  0.4911187834022570
  0.2604663446512134  0.5027770222414389  0.4846171287746230
  0.4996541838139379  0.4989343624373745  0.4904063263476743
  0.7509221992406481  0.5020562367635506  0.5058166884263784
  0.9880449906781479  0.7517157297651380  0.5103407804381135
  0.2433772951508999  0.7537136837571765  0.5018776256629138
  0.5087630430189307  0.7452508899479966  0.4928425602480289
  0.7493254190815151  0.7472050441367912  0.4984449654425021
  0.9941042860625871  0.0043515006537476  0.7527105515545216
  0.2490720728025551  0.9921910030620822  0.7524006406439767
  0.5035453262041472  0.9936027268822798  0.7494397953854630
  0.7501061107983276  0.0073053379491057  0.7481623035566329
  0.0011433305522530  0.2570354116372187  0.7543607403372690
  0.2478770210492698  0.2439323405469480  0.7600094261284482
  0.5003135676142563  0.2534363093242646  0.7478496398151364
  0.7365633182510791  0.2634487252413180  0.7415122314233855
  0.0030687210641602  0.5012370097320229  0.7517311891744995
  0.2443556789448849  0.5118087093008228  0.7473145915548542
  0.5085533348683597  0.4950532174971229  0.7510937847598171
  0.7383829412394007  0.4960852737409311  0.7632240080332622
  0.0012602233013297  0.7494689385975590  0.7418642984954218
  0.2347481845156381  0.7607788590183517  0.7515943767755573
  0.4984645022228520  0.7470344727575338  0.7573267752082913
  0.7490040650442680  0.7531576666097877  0.7405338164144126
  0.0552075295454628  0.0656421252355202  0.0658633400087680
  0.3171430811512792  0.0652761155002537  0.0574582903739582
  0.5633412913458073  0.0538317102823029  0.0644032136998547
  0.8072038019956835  0.0605751633066447  0.0733090185637693
  0.0699087508858369  0.3111242946013419  0.0648163865548383
  0.3062017750831103  0.3121188359696419  0.0739414859546628
  0.5601323428023690  0.3196765131899824  0.0594649956781410
  0.8255408775048991  0.2998625375482646  0.0618728592982265
  0.0677061107723418  0.5480630456201467  0.0767135031456405
  0.3075952159528512  0.5691517825187518  0.0632491873090331
  0.5665787503123596  0.5627469046250155  0.0584989629682653
  0.8249945335386002  0.5651973377611412  0.0561123489004132
  0.0530584149753750  0.8128940666744739  0.0651320667219437
  0.3028837084188680  0.8152655411705751  0.0654702604624617
  0.5611964654337882  0.7959558387014738  0.0739661025363034
  0.8116298056463833  0.8086542165204023  0.0671018378448949
  0.0693453697618267  0.0561397575641180  0.3139568966678894
  0.3182328385353372  0.0660417062923102  0.3044222677534094
  0.5579286000619277  0.0609786959404843  0.3237142903520080
  0.8124516529033770  0.0614000766641709  0.3229066945376573
  0.0757342292865317  0.3158627270473460  0.2951987093703963
  0.3116382192518117  0.3239795800122494  0.3101655086653352
  0.5614958979638800  0.3084926074320578  0.3214238241172325
  0.8068304169639475  0.3212548010510190  0.3069868290860214
  0.0556952129441370  0.5683353832323448  0.3132937006332241
  0.3011093164306970  0.5770555977439074  0.3036551699222088
  0.5569080912634092  0.5701588960264701  0.3081600141148755
  0.8181069336841915  0.5570685393148977  0.3203891798562282
  0.0699270975617665  0.8040603906700383  0.3068216451095793
  0.3145438220224150  0.8117320609486995  0.3066446854532998
  0.5683995378867337  0.8058081746046923  0.3140704592591987
  0.8160425786734820  0.8130261588591878  0.3048433620317397
  0.0682316426157925  0.0629756040891820  0.5671365207456986
  0.3098080897214786  0.0683688233087665  0.5661122992330974
  0.5636042457514421  0.0638193286364412  0.5674033904311671
  0.7935285035090160  0.0662299878786783  0.5618197076472100
  0.0686820656107585  0.3038106083101937  0.5617421248829402
  0.3230337286616773  0.3085988616210003  0.5578166334797672
  0.5610840051246839  0.3144461539732504  0.5556829696901247
  0.7978329239832576  0.3197880998558560  0.5626951320040945
  0.0705674433385184  0.5602863927929747  0.5574753327557573
  0.3144575255921538  0.5581081349270747  0.5660585609073365
  0.5484940975907691  0.5666242513269069  0.5683417868281992
  0.8138990638737269  0.5692034875676839  0.5619873493907761
  0.0563044473233276  0.7998801380848306  0.5675408205555144
  0.3268461349727616  0.8071372315407714  0.5633177339142748
  0.5693595682796939  0.8148235630128653  0.5554929050308672
  0.8053096596220541  0.8143453357836279  0.5619241586391013
  0.0660585463459427  0.0629123278743862  0.8140624939537773
  0.3191278911322684  0.0523347976498059  0.8127400677930936
  0.5676865978713437  0.0523784842923192  0.8099535046095028
  0.8067485522906921  0.0689774776942258  0.8104081899144830
  0.0636452581946401  0.3219421112730103  0.8011579746756254
  0.3223629942232122  0.3042105586318513  0.8121526615274064
  0.5589947422967043  0.3207876932261584  0.8031756807267527
  0.8170485392665725  0.3064373820483226  0.8149501513804793
  0.0614573843314830  0.5492340372795042  0.8251892834346606
  0.2954284083830387  0.5814486259964298  0.8162999917768374
  0.5665556002242269  0.5728462436406900  0.8083133586987898
  0.8086540269666003  0.5521872935908121  0.8161031237076415
  0.0528614467206054  0.8172778221742476  0.8153858348551779
  0.3216944674227733  0.8078582898346625  0.8075351049985002
  0.5634503354909128  0.8127643041533830  0.8153296538176491
  0.8179303817434871  0.8073642681676745  0.8086290356409194
 
  0.00000000E+00  0.00000000E+00  0.00000000E+00
  0.00000000E+00  0.00000000E+00  0.00000000E+00
  0.00000000E+00  0.00000000E+00  0.00000000E+00
  0.00000000E+00  0.00000000E+00  0.00000000E+00
  0.00000000E+00  0.00000000E+00  0.00000000E+00
  0.00000000E+00  0.00000000E+00  0.00000000E+00
  0.00000000E+00  0.00000000E+00  0.00000000E+00
  0.00000000E+00  0.00000000E+00  0.00000000E+00
  0.00000000E+00  0.00000000E+00  0.00000000E+00
  0.00000000E+00  0.00000000E+00  0.00000000E+00
  0.00000000E+00  0.00000000E+00  0.00000000E+00
  0.00000000E+00  0.00000000E+00  0.00000000E+00
  0.00000000E+00  0.00000000E+00  0.00000000E+00
  0.00000000E+00  0.00000000E+00  0.00000000E+00
  0.00000000E+00  0.00000000E+00  0.00000000E+00
  0.00000000E+00  0.00000000E+00  0.00000000E+00
  0.00000000E+00  0.00000000E+00  0.00000000E+00
  0.00000000E+00  0.00000000E+00  0.00000000E+00
  0.00000000E+00  0.00000000E+00  0.00000000E+00
  0.00000000E+00  0.00000000E+00  0.00000000E+00
  0.00000000E+00  0.00000000E+00  0.00000000E+00
  0.00000000E+00  0.00000000E+00  0.00000000E+00
  0.00000000E+00  0.00000000E+00  0.00000000E+00
  0.00000000E+00  0.00000000E+00  0.00000000E+00
  0.00000000E+00  0.00000000E+00  0.00000000E+00
  0.00000000E+00  0.00000000E+00  0.00000000E+00
  0.00000000E+00  0.00000000E+00  0.00000000E+00
  0.00000000E+00  0.00000000E+00  0.00000000E+00
  0.00000000E+00  0.00000000E+00  0.00000000E+00
  0.00000000E+00  0.00000000E+00  0.00000000E+00
  0.00000000E+00  0.00000000E+00  0.00000000E+00
  0.00000000E+00  0.00000000E+00  0.00000000E+00
  0.00000000E+00  0.00000000E+00  0.00000000E+00
  0.00000000E+00  0.00000000E+00  0.00000000E+00
  0.00000000E+00  0.00000000E+00  0.00000000E+00
  0.00000000E+00  0.00000000E+00  0.00000000E+00
  0.00000000E+00  0.00000000E+00  0.00000000E+00
  0.00000000E+00  0.00000000E+00  0.00000000E+00
  0.00000000E+00  0.00000000E+00  0.00000000E+00
  0.00000000E+00  0.00000000E+00  0.00000000E+00
  0.00000000E+00  0.00000000E+00  0.00000000E+00
  0.00000000E+00  0.00000000E+00  0.00000000E+00
  0.00000000E+00  0.00000000E+00  0.00000000E+00
  0.00000000E+00  0.00000000E+00  0.00000000E+00
  0.00000000E+00  0.00000000E+00  0.00000000E+00
  0.00000000E+00  0.00000000E+00  0.00000000E+00
  0.00000000E+00  0.00000000E+00  0.00000000E+00
  0.00000000E+00  0.00000000E+00  0.00000000E+00
  0.00000000E+00  0.00000000E+00  0.00000000E+00
  0.00000000E+00  0.00000000E+00  0.00000000E+00
  0.00000000E+00  0.00000000E+00  0.00000000E+00
  0.00000000E+00  0.00000000E+00  0.00000000E+00
  0.00000000E+00  0.00000000E+00  0.00000000E+00
  0.00000000E+00  0.00000000E+00  0.00000000E+00
  0.00000000E+00  0.00000000E+00  0.00000000E+00
  0.00000000E+00  0.00000000E+00  0.00000000E+00
  0.00000000E+00  0.00000000E+00  0.00000000E+00
  0.00000000E+00  0.00000000E+00  0.00000000E+00
  0.00000000E+00  0.00000000E+00  0.00000000E+00
  0.00000000E+00  0.00000000E+00  0.00000000E+00
  0.00000000E+00  0.00000000E+00  0.00000000E+00
  0.00000000E+00  0.00000000E+00  0.00000000E+00
  0.00000000E+00  0.00000000E+00  0.00000000E+00
  0.00000000E+00  0.00000000E+00  0.00000000E+00
  0.00000000E+00  0.00000000E+00  0.00000000E+00
  0.00000000E+00  0.00000000E+00  0.00000000E+00
  0.00000000E+00  0.00000000E+00  0.00000000E+00
  0.00000000E+00  0.00000000E+00  0.00000000E+00
  0.00000000E+00  0.00000000E+00  0.00000000E+00
  0.00000000E+00  0.00000000E+00  0.00000000E+00
  0.00000000E+00  0.00000000E+00  0.00000000E+00
  0.00000000E+00  0.00000000E+00  0.00000000E+00
  0.00000000E+00  0.00000000E+00  0.00000000E+00
  0.00000000E+00  0.00000000E+00  0.00000000E+00
  0.00000000E+00  0.00000000E+00  0.00000000E+00
  0.00000000E+00  0.00000000E+00  0.00000000E+00
  0.00000000E+00  0.00000000E+00  0.00000000E+00
  0.00000000E+00  0.00000000E+00  0.00000000E+00
  0.00000000E+00  0.00000000E+00  0.00000000E+00
  0.00000000E+00  0.00000000E+00  0.00000000E+00
  0.00000000E+00  0.00000000E+00  0.00000000E+00
  0.00000000E+00  0.00000000E+00  0.00000000E+00
  0.00000000E+00  0.00000000E+00  0.00000000E+00
  0.00000000E+00  0.00000000E+00  0.00000000E+00
  0.00000000E+00  0.00000000E+00  0.00000000E+00
  0.00000000E+00  0.00000000E+00  0.00000000E+00
  0.00000000E+00  0.00000000E+00  0.00000000E+00
  0.00000000E+00  0.00000000E+00  0.00000000E+00
  0.00000000E+00  0.00000000E+00  0.00000000E+00
  0.00000000E+00  0.00000000E+00  0.00000000E+00
  0.00000000E+00  0.00000000E+00  0.00000000E+00
  0.00000000E+00  0.00000000E+00  0.00000000E+00
  0.00000000E+00  0.00000000E+00  0.00000000E+00
  0.00000000E+00  0.00000000E+00  0.00000000E+00
  0.00000000E+00  0.00000000E+00  0.00000000E+00
  0.00000000E+00  0.00000000E+00  0.00000000E+00
  0.00000000E+00  0.00000000E+00  0.00000000E+00
  0.00000000E+00  0.00000000E+00  0.00000000E+00
  0.00000000E+00  0.00000000E+00  0.00000000E+00
  0.00000000E+00  0.00000000E+00  0.00000000E+00
  0.00000000E+00  0.00000000E+00  0.00000000E+00
  0.00000000E+00  0.00000000E+00  0.00000000E+00
  0.00000000E+00  0.00000000E+00  0.00000000E+00
  0.00000000E+00  0.00000000E+00  0.00000000E+00
  0.00000000E+00  0.00000000E+00  0.00000000E+00
  0.00000000E+00  0.00000000E+00  0.00000000E+00
  0.00000000E+00  0.00000000E+00  0.00000000E+00
  0.00000000E+00  0.00000000E+00  0.00000000E+00
  0.00000000E+00  0.00000000E+00  0.00000000E+00
  0.00000000E+00  0.00000000E+00  0.00000000E+00
  0.00000000E+00  0.00000000E+00  0.00000000E+00
  0.00000000E+00  0.00000000E+00  0.00000000E+00
  0.00000000E+00  0.00000000E+00  0.00000000E+00
  0.00000000E+00  0.00000000E+00  0.00000000E+00
  0.00000000E+00  0.00000000E+00  0.00000000E+00
  0.00000000E+00  0.00000000E+00  0.00000000E+00
  0.00000000E+00  0.00000000E+00  0.00000000E+00
  0.00000000E+00  0.00000000E+00  0.00000000E+00
  0.00000000E+00  0.00000000E+00  0.00000000E+00
  0.00000000E+00  0.00000000E+00  0.00000000E+00
  0.00000000E+00  0.00000000E+00  0.00000000E+00
  0.00000000E+00  0.00000000E+00  0.00000000E+00
  0.00000000E+00  0.00000000E+00  0.00000000E+00
  0.00000000E+00  0.00000000E+00  0.00000000E+00
  0.00000000E+00  0.00000000E+00  0.00000000E+00
  0.00000000E+00  0.00000000E+00  0.00000000E+00
  0.00000000E+00  0.00000000E+00  0.00000000E+00
  0.00000000E+00  0.00000000E+00  0.00000000E+00
