kk
 1.0000000000000000
     0.0000000000000000   10.9373336906932952   10.9373336906932952
    10.9373336906932952    0.0000000000000000   10.9373336906932952
    10.9373336906932952   10.9373336906932952    0.0000000000000000
 128
Direct
  0.9960548854772286  0.0005010280282979  0.0030676221807786
  0.2538372953901680  0.0013227173278777  0.9945987767176950
  0.5045771563355401  0.0014885140835351  0.9924616735073447
  0.7524167640626176  0.0046833702845878  0.9970313408863696
  0.0033508939068595  0.2454952386659182  0.0119524604179052
  0.2488540063478578  0.2479679115576895  0.0009850085049817
  0.5038385078161557  0.2516787624059409  0.0001374440692875
  0.7539143483428643  0.2526054892766649  0.9981956227447859
  0.9975795101134770  0.5101386073557540  0.9990934465931712
  0.2532168626224616  0.5021572811448541  0.9965886546588623
  0.5059641567924358  0.4964352681239939  0.0091913755136668
  0.7415624580764399  0.5041798913852144  0.0063208337976615
  0.0063004522830907  0.7539835007044547  0.9978428862613749
  0.2478096571637906  0.7485631709707238  0.0097051292468476
  0.4952502244675337  0.7469637817276149  0.9999544719406311
  0.7525860773765013  0.7419737504935119  0.0020526332797089
  0.0074723055691181  0.9885834663194956  0.2547026117472900
  0.2495448118534859  0.0038332363475164  0.2552112233072697
  0.5072318270058223  0.9983103027035586  0.2510218265733697
  0.7556883713858432  0.0006834385110664  0.2461105615125514
  0.0007506830449286  0.2532255311773747  0.2413613441517961
  0.2616832514528697  0.2485117687722114  0.2520119545878752
  0.4904452588541642  0.2495667314263259  0.2619769892998352
  0.7450894408637109  0.2477062322554961  0.2503797143143123
  0.0068204781870589  0.4921501711850512  0.2521152907378429
  0.2408518824445416  0.5115796194618352  0.2443689787471604
  0.5054520275810693  0.4902644043415962  0.2555580347937310
  0.7505684581930726  0.5080848904135452  0.2587545177228980
  0.0082579482067790  0.7430128769547664  0.2538333447993960
  0.2505214284985193  0.7482800436627212  0.2610271634949478
  0.4939942758811242  0.7493738501977988  0.2706858604198816
  0.7407594861777235  0.7465786502038602  0.2463788352397679
  0.9969285252056271  0.9939654766031478  0.5050191357998687
  0.2586294469141738  0.9975982421368681  0.5012182534873707
  0.4957418732140476  0.0080789170210872  0.5022310477843509
  0.7482785986545167  0.0023100676004408  0.4934939405654922
  0.9955262521583903  0.2634680074778999  0.4996057276695874
  0.2441764462748320  0.2526603171867153  0.5036468074031935
  0.5019720574624849  0.2531875730435760  0.4995517313003378
  0.7506364150617466  0.2464508267949243  0.5086783048446853
  0.0084376247936351  0.4978295126624221  0.4911187834022603
  0.2604663446512144  0.5027770222414377  0.4846171287746230
  0.4996541838139376  0.4989343624373717  0.4904063263476717
  0.7509221992406488  0.5020562367635506  0.5058166884263748
  0.9880449906781478  0.7517157297651350  0.5103407804381100
  0.2433772951509018  0.7537136837571786  0.5018776256629103
  0.5087630430189288  0.7452508899479940  0.4928425602480256
  0.7493254190815127  0.7472050441367906  0.4984449654424991
  0.9941042860625837  0.0043515006537464  0.7527105515545209
  0.2490720728025585  0.9921910030620844  0.7524006406439802
  0.5035453262041502  0.9936027268822787  0.7494397953854602
  0.7501061107983289  0.0073053379491040  0.7481623035566317
  0.0011433305522531  0.2570354116372222  0.7543607403372687
  0.2478770210492670  0.2439323405469453  0.7600094261284509
  0.5003135676142529  0.2534363093242626  0.7478496398151333
  0.7365633182510777  0.2634487252413160  0.7415122314233867
  0.0030687210641635  0.5012370097320247  0.7517311891744982
  0.2443556789448877  0.5118087093008218  0.7473145915548516
  0.5085533348683567  0.4950532174971195  0.7510937847598168
  0.7383829412393998  0.4960852737409329  0.7632240080332594
  0.0012602233013276  0.7494689385975573  0.7418642984954202
  0.2347481845156350  0.7607788590183493  0.7515943767755597
  0.4984645022228536  0.7470344727575349  0.7573267752082894
  0.7490040650442675  0.7531576666097857  0.7405338164144104
  0.0552075295454613  0.0656421252355217  0.0658633400087708
  0.3171430811512825  0.0652761155002536  0.0574582903739609
  0.5633412913458044  0.0538317102823038  0.0644032136998544
  0.8072038019956846  0.0605751633066436  0.0733090185637709
  0.0699087508858354  0.3111242946013443  0.0648163865548356
  0.3062017750831135  0.3121188359696436  0.0739414859546605
  0.5601323428023679  0.3196765131899800  0.0594649956781427
  0.8255408775049004  0.2998625375482633  0.0618728592982265
  0.0677061107723422  0.5480630456201493  0.0767135031456412
  0.3075952159528540  0.5691517825187538  0.0632491873090325
  0.5665787503123597  0.5627469046250143  0.0584989629682659
  0.8249945335386003  0.5651973377611387  0.0561123489004130
  0.0530584149753757  0.8128940666744708  0.0651320667219440
  0.3028837084188651  0.8152655411705784  0.0654702604624591
  0.5611964654337883  0.7959558387014742  0.0739661025363013
  0.8116298056463809  0.8086542165204009  0.0671018378448984
  0.0693453697618302  0.0561397575641148  0.3139568966678875
  0.3182328385353361  0.0660417062923100  0.3044222677534095
  0.5579286000619311  0.0609786959404812  0.3237142903520067
  0.8124516529033734  0.0614000766641744  0.3229066945376576
  0.0757342292865300  0.3158627270473494  0.2951987093703953
  0.3116382192518138  0.3239795800122459  0.3101655086653329
  0.5614958979638829  0.3084926074320568  0.3214238241172334
  0.8068304169639507  0.3212548010510164  0.3069868290860230
  0.0556952129441349  0.5683353832323437  0.3132937006332242
  0.3011093164306975  0.5770555977439108  0.3036551699222094
  0.5569080912634076  0.5701588960264724  0.3081600141148773
  0.8181069336841916  0.5570685393149001  0.3203891798562289
  0.0699270975617698  0.8040603906700380  0.3068216451095793
  0.3145438220224142  0.8117320609486991  0.3066446854533030
  0.5683995378867326  0.8058081746046896  0.3140704592591965
  0.8160425786734838  0.8130261588591848  0.3048433620317402
  0.0682316426157897  0.0629756040891803  0.5671365207457006
  0.3098080897214758  0.0683688233087669  0.5661122992330996
  0.5636042457514443  0.0638193286364383  0.5674033904311657
  0.7935285035090174  0.0662299878786766  0.5618197076472093
  0.0686820656107581  0.3038106083101970  0.5617421248829366
  0.3230337286616786  0.3085988616210019  0.5578166334797668
  0.5610840051246837  0.3144461539732468  0.5556829696901250
  0.7978329239832550  0.3197880998558558  0.5626951320040910
  0.0705674433385176  0.5602863927929720  0.5574753327557590
  0.3144575255921516  0.5581081349270749  0.5660585609073341
  0.5484940975907688  0.5666242513269047  0.5683417868282022
  0.8138990638737255  0.5692034875676829  0.5619873493907737
  0.0563044473233247  0.7998801380848275  0.5675408205555126
  0.3268461349727625  0.8071372315407733  0.5633177339142770
  0.5693595682796939  0.8148235630128646  0.5554929050308692
  0.8053096596220535  0.8143453357836268  0.5619241586391048
  0.0660585463459417  0.0629123278743860  0.8140624939537807
  0.3191278911322690  0.0523347976498071  0.8127400677930953
  0.5676865978713440  0.0523784842923180  0.8099535046094993
  0.8067485522906903  0.0689774776942278  0.8104081899144830
  0.0636452581946428  0.3219421112730126  0.8011579746756274
  0.3223629942232099  0.3042105586318548  0.8121526615274068
  0.5589947422967040  0.3207876932261557  0.8031756807267562
  0.8170485392665741  0.3064373820483213  0.8149501513804764
  0.0614573843314817  0.5492340372795057  0.8251892834346628
  0.2954284083830413  0.5814486259964280  0.8162999917768361
  0.5665556002242256  0.5728462436406903  0.8083133586987904
  0.8086540269665986  0.5521872935908104  0.8161031237076407
  0.0528614467206044  0.8172778221742474  0.8153858348551765
  0.3216944674227710  0.8078582898346635  0.8075351049984995
  0.5634503354909125  0.8127643041533806  0.8153296538176457
  0.8179303817434886  0.8073642681676747  0.8086290356409199
