kk                                      
   1.00000000000000     
     0.0000000000000000   10.9373336906932952   10.9373336906932952
    10.9373336906932952    0.0000000000000000   10.9373336906932952
    10.9373336906932952   10.9373336906932952    0.0000000000000000
   Si
   128
Direct
  0.0035538651543234  0.0060344287247531  0.9947093129073465
  0.2469841447936574  0.9890356364102288  0.0100536006095098
  0.4991990423595141  0.9923575636573645  0.0071703013634732
  0.7535754750542552  0.0062339478175488  0.9995764777325462
  0.0078462522525840  0.2472120500415471  0.9975117188939109
  0.2386480300543354  0.2493762716601182  0.0006519892375536
  0.4958359039058706  0.2501919104656380  0.0048453203004897
  0.7500330049895680  0.2617255511934644  0.9835224499185600
  0.9906062149483006  0.5065075318077348  0.0018260251757738
  0.2458545399094021  0.5057627205994848  0.0008995954850448
  0.4932408586719816  0.5083514983061619  0.9925486487987669
  0.7405713429799263  0.5011229628331151  0.0086927344714312
  0.0005772546486824  0.7422872358541568  0.9952476872235607
  0.2442507564433996  0.7551414669314127  0.0026759007558468
  0.5069303636710245  0.7475961367554262  0.9916804230775611
  0.7431951857526613  0.7573927334381665  0.0017360229530325
  0.0130232122028744  0.0037930825121819  0.2342058202687198
  0.2593705985030894  0.9948459005411863  0.2531012732300582
  0.4976736024182813  0.0077996256287989  0.2444714585302066
  0.7430481898244352  0.9928226341207349  0.2653760801489895
  0.9950923099566964  0.2607180825789897  0.2405202942313451
  0.2492177569146108  0.2342540973103766  0.2677561361795497
  0.5034220159806466  0.2443168747439515  0.2407674025313611
  0.7539980124157211  0.2448603564854395  0.2502730844352783
  0.0017832409901715  0.4993788438907032  0.2485292671596895
  0.2513551939565133  0.4959205533157274  0.2472977465374484
  0.5107481895795587  0.4940664050570973  0.2435347399411611
  0.7540248435207673  0.4882032927790050  0.2556592325007685
  0.9899822779489753  0.7453638498062176  0.2616010107424742
  0.2461055341779428  0.7493945992177586  0.2555697699106929
  0.5015998552079921  0.7519582828085376  0.2423352232348677
  0.7516344868658322  0.7477819704185791  0.2510226465029959
  0.9929811513578102  0.0112500768911161  0.4983731745485542
  0.2493713954531174  0.9959133402362355  0.5093515225365124
  0.5021197232147188  0.9927901813960958  0.5086035657403301
  0.7547054170729268  0.9934330898170316  0.4966760018322134
  0.9996439965142088  0.2533245248721983  0.5010954517493573
  0.2457284385709926  0.2589170723701173  0.4970916566381263
  0.5033023885097450  0.2485016314852686  0.4956886062923260
  0.7493724082802800  0.2410452389511306  0.5049684236944429
  0.9870545099015047  0.5148024510379230  0.5014831832466484
  0.2480479022704785  0.5076940261364911  0.4987587616912350
  0.5066378504150109  0.5018315561215161  0.4964021093444728
  0.7434952779153434  0.5043485097303702  0.5099895295368171
  0.9911592639847697  0.7556575465535573  0.5008575719453177
  0.2413711264125169  0.7433030705087589  0.5012167424035781
  0.5065189659869489  0.7457170380236064  0.5068346972186930
  0.7645121873391787  0.7386664661843128  0.4967867947144171
  0.0058404353776425  0.9955172565805057  0.7410230252286922
  0.2443142402334999  0.9962857703937473  0.7575182320928064
  0.5071857363473242  0.0086866303312050  0.7410995559961933
  0.7589638289923002  0.9928967868298173  0.7494050394834773
  0.0081316472498401  0.2381424224922739  0.7511682589639506
  0.2440568202271365  0.2469893331002027  0.7659089541287614
  0.4876693575960900  0.2550694386368590  0.7573193216785654
  0.7416446298286417  0.2576122830078660  0.7522871162234210
  0.0017186088971783  0.4994477204523449  0.7381024188255552
  0.2567703786531226  0.4971291989330737  0.7440756672172455
  0.4941223972757598  0.5013279630456040  0.7417260203701019
  0.7498755949200060  0.5055642553044493  0.7533715260528169
  0.0081892146300291  0.7541035085634249  0.7454546896529379
  0.2527348263706415  0.7552760433486512  0.7418865791974554
  0.4878992937633342  0.7640867639166515  0.7498710950849485
  0.7404916368196979  0.7473372030331404  0.7517060020008657
  0.0686689269455130  0.0682312218589161  0.0555221715715746
  0.3257234770586308  0.0578361873431632  0.0662128229922558
  0.5585821667038928  0.0674212669027270  0.0589527806892960
  0.8068926189372405  0.0658398367007678  0.0596176589904474
  0.0586230742467677  0.3160164713699416  0.0592215662936653
  0.3128680039972878  0.3021851550409949  0.0770543037848270
  0.5668953890107886  0.3186954590212920  0.0552231754901911
  0.8198279383152780  0.3091310825861839  0.0564131171683044
  0.0629744631734681  0.5634538221442895  0.0602523475469567
  0.3141835771892048  0.5640370314336138  0.0702211867436162
  0.5582747166962392  0.5631040246290908  0.0570422177714889
  0.8048575568268816  0.5658433350673917  0.0616634411338666
  0.0554738115066584  0.8217740180611059  0.0564059398267105
  0.3208827809489563  0.8011600307688482  0.0744365287652613
  0.5678349743511646  0.8082264338487803  0.0650590417562071
  0.8141841506381411  0.8098453687675899  0.0664176723634569
  0.0655437401389918  0.0676536678621389  0.3060972621432327
  0.3120526002874868  0.0623764504317421  0.3180584774081296
  0.5642209957676698  0.0657948574051446  0.3073896177438584
  0.8105811623630004  0.0628493295953874  0.3095578039929734
  0.0511453964933182  0.3147537682573116  0.3171621349392595
  0.3043891604492543  0.3230682948343571  0.3082539783358769
  0.5561144407025935  0.3197818855348942  0.3213239351660491
  0.8139393444212075  0.3147348003683561  0.3100638550200614
  0.0664663224748239  0.5551130424477009  0.3150418844689042
  0.3101316025610501  0.5587902395721187  0.3089251226225471
  0.5790969746339627  0.5666995736920555  0.2956594318326111
  0.8159818515387443  0.5650856858019537  0.3000466610195645
  0.0562991461709146  0.8167444979118699  0.3143629969351736
  0.3117930086530123  0.8110198735121159  0.3060310996806095
  0.5701420420271077  0.8120842174914742  0.3093412690922861
  0.8095946448764622  0.8027224954865062  0.3153733954525819
  0.0484436156830625  0.0672505727322488  0.5669628041532278
  0.3219992895327550  0.0646170814266043  0.5464554664563579
  0.5532968360153845  0.0618461236466601  0.5645426716259863
  0.8100554177324213  0.0620475204683189  0.5680169926068430
  0.0595620050347563  0.2929350641567794  0.5748685692350577
  0.3086068876291463  0.3172830406443907  0.5633849771491484
  0.5591356022668421  0.3072324889707474  0.5701806755575660
  0.8097544892600936  0.3127627474400185  0.5670399098550263
  0.0630565589303203  0.5605352495004041  0.5623703742483528
  0.3215962647831105  0.5651516635055884  0.5654568985604129
  0.5610386811874548  0.5717984783380601  0.5647324735156900
  0.8137151849136401  0.5575023264958787  0.5626403117296590
  0.0676636804084723  0.8039731947131656  0.5653234513841170
  0.3217336686721453  0.8095964852542323  0.5628099951229970
  0.5700046352944383  0.7989623573769506  0.5605547841273051
  0.8111023137090569  0.8071319085178601  0.5712346659099410
  0.0677476257525100  0.0630523858345882  0.7986030024273276
  0.3069785789890958  0.0610554827382757  0.8194195881904420
  0.5638823217757505  0.0578291298633999  0.8184676092846885
  0.8193031129545432  0.0563495865310628  0.8124628690735847
  0.0598404409282480  0.3235302366774135  0.8156577852339524
  0.3116076126476557  0.3135994844092380  0.8006149300009611
  0.5640497818304482  0.3198356791526535  0.8104061502082516
  0.8172394145799942  0.3188579095064625  0.8018841512890944
  0.0561607023332371  0.5772416732962213  0.8039663442608926
  0.3090916652549822  0.5706986701413257  0.8110626116943536
  0.5564706476551535  0.5694585846915530  0.8094137389155662
  0.8073062715277217  0.5610043562895370  0.8229548771646122
  0.0683317501392153  0.8044871093988633  0.8159756474612578
  0.3082023922271659  0.8240377574843407  0.8112979392703750
  0.5632802259823393  0.8019155954331083  0.8231464391487506
  0.8320262164746666  0.8129592031438193  0.8020552566405073
 
  0.00000000E+00  0.00000000E+00  0.00000000E+00
  0.00000000E+00  0.00000000E+00  0.00000000E+00
  0.00000000E+00  0.00000000E+00  0.00000000E+00
  0.00000000E+00  0.00000000E+00  0.00000000E+00
  0.00000000E+00  0.00000000E+00  0.00000000E+00
  0.00000000E+00  0.00000000E+00  0.00000000E+00
  0.00000000E+00  0.00000000E+00  0.00000000E+00
  0.00000000E+00  0.00000000E+00  0.00000000E+00
  0.00000000E+00  0.00000000E+00  0.00000000E+00
  0.00000000E+00  0.00000000E+00  0.00000000E+00
  0.00000000E+00  0.00000000E+00  0.00000000E+00
  0.00000000E+00  0.00000000E+00  0.00000000E+00
  0.00000000E+00  0.00000000E+00  0.00000000E+00
  0.00000000E+00  0.00000000E+00  0.00000000E+00
  0.00000000E+00  0.00000000E+00  0.00000000E+00
  0.00000000E+00  0.00000000E+00  0.00000000E+00
  0.00000000E+00  0.00000000E+00  0.00000000E+00
  0.00000000E+00  0.00000000E+00  0.00000000E+00
  0.00000000E+00  0.00000000E+00  0.00000000E+00
  0.00000000E+00  0.00000000E+00  0.00000000E+00
  0.00000000E+00  0.00000000E+00  0.00000000E+00
  0.00000000E+00  0.00000000E+00  0.00000000E+00
  0.00000000E+00  0.00000000E+00  0.00000000E+00
  0.00000000E+00  0.00000000E+00  0.00000000E+00
  0.00000000E+00  0.00000000E+00  0.00000000E+00
  0.00000000E+00  0.00000000E+00  0.00000000E+00
  0.00000000E+00  0.00000000E+00  0.00000000E+00
  0.00000000E+00  0.00000000E+00  0.00000000E+00
  0.00000000E+00  0.00000000E+00  0.00000000E+00
  0.00000000E+00  0.00000000E+00  0.00000000E+00
  0.00000000E+00  0.00000000E+00  0.00000000E+00
  0.00000000E+00  0.00000000E+00  0.00000000E+00
  0.00000000E+00  0.00000000E+00  0.00000000E+00
  0.00000000E+00  0.00000000E+00  0.00000000E+00
  0.00000000E+00  0.00000000E+00  0.00000000E+00
  0.00000000E+00  0.00000000E+00  0.00000000E+00
  0.00000000E+00  0.00000000E+00  0.00000000E+00
  0.00000000E+00  0.00000000E+00  0.00000000E+00
  0.00000000E+00  0.00000000E+00  0.00000000E+00
  0.00000000E+00  0.00000000E+00  0.00000000E+00
  0.00000000E+00  0.00000000E+00  0.00000000E+00
  0.00000000E+00  0.00000000E+00  0.00000000E+00
  0.00000000E+00  0.00000000E+00  0.00000000E+00
  0.00000000E+00  0.00000000E+00  0.00000000E+00
  0.00000000E+00  0.00000000E+00  0.00000000E+00
  0.00000000E+00  0.00000000E+00  0.00000000E+00
  0.00000000E+00  0.00000000E+00  0.00000000E+00
  0.00000000E+00  0.00000000E+00  0.00000000E+00
  0.00000000E+00  0.00000000E+00  0.00000000E+00
  0.00000000E+00  0.00000000E+00  0.00000000E+00
  0.00000000E+00  0.00000000E+00  0.00000000E+00
  0.00000000E+00  0.00000000E+00  0.00000000E+00
  0.00000000E+00  0.00000000E+00  0.00000000E+00
  0.00000000E+00  0.00000000E+00  0.00000000E+00
  0.00000000E+00  0.00000000E+00  0.00000000E+00
  0.00000000E+00  0.00000000E+00  0.00000000E+00
  0.00000000E+00  0.00000000E+00  0.00000000E+00
  0.00000000E+00  0.00000000E+00  0.00000000E+00
  0.00000000E+00  0.00000000E+00  0.00000000E+00
  0.00000000E+00  0.00000000E+00  0.00000000E+00
  0.00000000E+00  0.00000000E+00  0.00000000E+00
  0.00000000E+00  0.00000000E+00  0.00000000E+00
  0.00000000E+00  0.00000000E+00  0.00000000E+00
  0.00000000E+00  0.00000000E+00  0.00000000E+00
  0.00000000E+00  0.00000000E+00  0.00000000E+00
  0.00000000E+00  0.00000000E+00  0.00000000E+00
  0.00000000E+00  0.00000000E+00  0.00000000E+00
  0.00000000E+00  0.00000000E+00  0.00000000E+00
  0.00000000E+00  0.00000000E+00  0.00000000E+00
  0.00000000E+00  0.00000000E+00  0.00000000E+00
  0.00000000E+00  0.00000000E+00  0.00000000E+00
  0.00000000E+00  0.00000000E+00  0.00000000E+00
  0.00000000E+00  0.00000000E+00  0.00000000E+00
  0.00000000E+00  0.00000000E+00  0.00000000E+00
  0.00000000E+00  0.00000000E+00  0.00000000E+00
  0.00000000E+00  0.00000000E+00  0.00000000E+00
  0.00000000E+00  0.00000000E+00  0.00000000E+00
  0.00000000E+00  0.00000000E+00  0.00000000E+00
  0.00000000E+00  0.00000000E+00  0.00000000E+00
  0.00000000E+00  0.00000000E+00  0.00000000E+00
  0.00000000E+00  0.00000000E+00  0.00000000E+00
  0.00000000E+00  0.00000000E+00  0.00000000E+00
  0.00000000E+00  0.00000000E+00  0.00000000E+00
  0.00000000E+00  0.00000000E+00  0.00000000E+00
  0.00000000E+00  0.00000000E+00  0.00000000E+00
  0.00000000E+00  0.00000000E+00  0.00000000E+00
  0.00000000E+00  0.00000000E+00  0.00000000E+00
  0.00000000E+00  0.00000000E+00  0.00000000E+00
  0.00000000E+00  0.00000000E+00  0.00000000E+00
  0.00000000E+00  0.00000000E+00  0.00000000E+00
  0.00000000E+00  0.00000000E+00  0.00000000E+00
  0.00000000E+00  0.00000000E+00  0.00000000E+00
  0.00000000E+00  0.00000000E+00  0.00000000E+00
  0.00000000E+00  0.00000000E+00  0.00000000E+00
  0.00000000E+00  0.00000000E+00  0.00000000E+00
  0.00000000E+00  0.00000000E+00  0.00000000E+00
  0.00000000E+00  0.00000000E+00  0.00000000E+00
  0.00000000E+00  0.00000000E+00  0.00000000E+00
  0.00000000E+00  0.00000000E+00  0.00000000E+00
  0.00000000E+00  0.00000000E+00  0.00000000E+00
  0.00000000E+00  0.00000000E+00  0.00000000E+00
  0.00000000E+00  0.00000000E+00  0.00000000E+00
  0.00000000E+00  0.00000000E+00  0.00000000E+00
  0.00000000E+00  0.00000000E+00  0.00000000E+00
  0.00000000E+00  0.00000000E+00  0.00000000E+00
  0.00000000E+00  0.00000000E+00  0.00000000E+00
  0.00000000E+00  0.00000000E+00  0.00000000E+00
  0.00000000E+00  0.00000000E+00  0.00000000E+00
  0.00000000E+00  0.00000000E+00  0.00000000E+00
  0.00000000E+00  0.00000000E+00  0.00000000E+00
  0.00000000E+00  0.00000000E+00  0.00000000E+00
  0.00000000E+00  0.00000000E+00  0.00000000E+00
  0.00000000E+00  0.00000000E+00  0.00000000E+00
  0.00000000E+00  0.00000000E+00  0.00000000E+00
  0.00000000E+00  0.00000000E+00  0.00000000E+00
  0.00000000E+00  0.00000000E+00  0.00000000E+00
  0.00000000E+00  0.00000000E+00  0.00000000E+00
  0.00000000E+00  0.00000000E+00  0.00000000E+00
  0.00000000E+00  0.00000000E+00  0.00000000E+00
  0.00000000E+00  0.00000000E+00  0.00000000E+00
  0.00000000E+00  0.00000000E+00  0.00000000E+00
  0.00000000E+00  0.00000000E+00  0.00000000E+00
  0.00000000E+00  0.00000000E+00  0.00000000E+00
  0.00000000E+00  0.00000000E+00  0.00000000E+00
  0.00000000E+00  0.00000000E+00  0.00000000E+00
  0.00000000E+00  0.00000000E+00  0.00000000E+00
  0.00000000E+00  0.00000000E+00  0.00000000E+00
  0.00000000E+00  0.00000000E+00  0.00000000E+00
