kk
 1.0000000000000000
     0.0000000000000000   10.9373336906932952   10.9373336906932952
    10.9373336906932952    0.0000000000000000   10.9373336906932952
    10.9373336906932952   10.9373336906932952    0.0000000000000000
 128
Direct
  0.0035538651543244  0.0060344287247518  0.9947093129073469
  0.2469841447936552  0.9890356364102306  0.0100536006095074
  0.4991990423595143  0.9923575636573673  0.0071703013634764
  0.7535754750542579  0.0062339478175520  0.9995764777325453
  0.0078462522525834  0.2472120500415456  0.9975117188939103
  0.2386480300543379  0.2493762716601194  0.0006519892375503
  0.4958359039058697  0.2501919104656375  0.0048453203004868
  0.7500330049895685  0.2617255511934677  0.9835224499185602
  0.9906062149483016  0.5065075318077347  0.0018260251757739
  0.2458545399094000  0.5057627205994866  0.0008995954850432
  0.4932408586719790  0.5083514983061650  0.9925486487987649
  0.7405713429799278  0.5011229628331120  0.0086927344714303
  0.0005772546486798  0.7422872358541542  0.9952476872235584
  0.2442507564434000  0.7551414669314113  0.0026759007558469
  0.5069303636710241  0.7475961367554289  0.9916804230775633
  0.7431951857526639  0.7573927334381689  0.0017360229530325
  0.0130232122028728  0.0037930825121846  0.2342058202687208
  0.2593705985030860  0.9948459005411869  0.2531012732300602
  0.4976736024182831  0.0077996256287961  0.2444714585302060
  0.7430481898244333  0.9928226341207315  0.2653760801489925
  0.9950923099566971  0.2607180825789883  0.2405202942313443
  0.2492177569146116  0.2342540973103757  0.2677561361795481
  0.5034220159806474  0.2443168747439524  0.2407674025313627
  0.7539980124157226  0.2448603564854361  0.2502730844352788
  0.0017832409901725  0.4993788438907056  0.2485292671596919
  0.2513551939565152  0.4959205533157242  0.2472977465374516
  0.5107481895795598  0.4940664050570990  0.2435347399411626
  0.7540248435207648  0.4882032927790078  0.2556592325007653
  0.9899822779489728  0.7453638498062165  0.2616010107424731
  0.2461055341779409  0.7493945992177555  0.2555697699106920
  0.5015998552079955  0.7519582828085343  0.2423352232348683
  0.7516344868658303  0.7477819704185772  0.2510226465029962
  0.9929811513578082  0.0112500768911130  0.4983731745485513
  0.2493713954531195  0.9959133402362389  0.5093515225365118
  0.5021197232147184  0.9927901813960933  0.5086035657403287
  0.7547054170729299  0.9934330898170306  0.4966760018322102
  0.9996439965142123  0.2533245248721971  0.5010954517493608
  0.2457284385709924  0.2589170723701152  0.4970916566381278
  0.5033023885097431  0.2485016314852678  0.4956886062923240
  0.7493724082802803  0.2410452389511316  0.5049684236944431
  0.9870545099015074  0.5148024510379231  0.5014831832466501
  0.2480479022704754  0.5076940261364880  0.4987587616912318
  0.5066378504150113  0.5018315561215179  0.4964021093444728
  0.7434952779153466  0.5043485097303717  0.5099895295368186
  0.9911592639847703  0.7556575465535567  0.5008575719453143
  0.2413711264125162  0.7433030705087604  0.5012167424035812
  0.5065189659869520  0.7457170380236086  0.5068346972186953
  0.7645121873391797  0.7386664661843140  0.4967867947144157
  0.0058404353776425  0.9955172565805083  0.7410230252286939
  0.2443142402334978  0.9962857703937492  0.7575182320928041
  0.5071857363473232  0.0086866303312030  0.7410995559961955
  0.7589638289923010  0.9928967868298160  0.7494050394834737
  0.0081316472498388  0.2381424224922763  0.7511682589639506
  0.2440568202271380  0.2469893331002016  0.7659089541287619
  0.4876693575960928  0.2550694386368579  0.7573193216785624
  0.7416446298286384  0.2576122830078636  0.7522871162234205
  0.0017186088971774  0.4994477204523483  0.7381024188255521
  0.2567703786531213  0.4971291989330764  0.7440756672172427
  0.4941223972757591  0.5013279630456053  0.7417260203700989
  0.7498755949200029  0.5055642553044499  0.7533715260528174
  0.0081892146300312  0.7541035085634283  0.7454546896529402
  0.2527348263706400  0.7552760433486478  0.7418865791974566
  0.4878992937633312  0.7640867639166514  0.7498710950849480
  0.7404916368196948  0.7473372030331376  0.7517060020008628
  0.0686689269455127  0.0682312218589162  0.0555221715715775
  0.3257234770586329  0.0578361873431657  0.0662128229922552
  0.5585821667038899  0.0674212669027247  0.0589527806892948
  0.8068926189372430  0.0658398367007656  0.0596176589904442
  0.0586230742467694  0.3160164713699431  0.0592215662936653
  0.3128680039972903  0.3021851550409920  0.0770543037848253
  0.5668953890107916  0.3186954590212900  0.0552231754901940
  0.8198279383152769  0.3091310825861850  0.0564131171683064
  0.0629744631734696  0.5634538221442876  0.0602523475469597
  0.3141835771892045  0.5640370314336109  0.0702211867436132
  0.5582747166962377  0.5631040246290879  0.0570422177714889
  0.8048575568268821  0.5658433350673928  0.0616634411338695
  0.0554738115066566  0.8217740180611084  0.0564059398267114
  0.3208827809489592  0.8011600307688493  0.0744365287652586
  0.5678349743511626  0.8082264338487776  0.0650590417562081
  0.8141841506381443  0.8098453687675876  0.0664176723634553
  0.0655437401389899  0.0676536678621375  0.3060972621432336
  0.3120526002874893  0.0623764504317442  0.3180584774081274
  0.5642209957676670  0.0657948574051479  0.3073896177438573
  0.8105811623630005  0.0628493295953873  0.3095578039929766
  0.0511453964933184  0.3147537682573105  0.3171621349392614
  0.3043891604492566  0.3230682948343543  0.3082539783358794
  0.5561144407025947  0.3197818855348930  0.3213239351660508
  0.8139393444212102  0.3147348003683526  0.3100638550200616
  0.0664663224748271  0.5551130424477041  0.3150418844689028
  0.3101316025610535  0.5587902395721183  0.3089251226225452
  0.5790969746339613  0.5666995736920543  0.2956594318326102
  0.8159818515387414  0.5650856858019550  0.3000466610195621
  0.0562991461709144  0.8167444979118734  0.3143629969351739
  0.3117930086530144  0.8110198735121128  0.3060310996806119
  0.5701420420271105  0.8120842174914736  0.3093412690922894
  0.8095946448764633  0.8027224954865092  0.3153733954525804
  0.0484436156830635  0.0672505727322522  0.5669628041532272
  0.3219992895327532  0.0646170814266009  0.5464554664563609
  0.5532968360153838  0.0618461236466577  0.5645426716259893
  0.8100554177324228  0.0620475204683217  0.5680169926068458
  0.0595620050347564  0.2929350641567819  0.5748685692350554
  0.3086068876291469  0.3172830406443923  0.5633849771491501
  0.5591356022668443  0.3072324889707483  0.5701806755575628
  0.8097544892600936  0.3127627474400214  0.5670399098550288
  0.0630565589303226  0.5605352495004015  0.5623703742483503
  0.3215962647831123  0.5651516635055889  0.5654568985604121
  0.5610386811874521  0.5717984783380583  0.5647324735156892
  0.8137151849136413  0.5575023264958791  0.5626403117296570
  0.0676636804084758  0.8039731947131676  0.5653234513841193
  0.3217336686721427  0.8095964852542347  0.5628099951229988
  0.5700046352944380  0.7989623573769485  0.5605547841273018
  0.8111023137090536  0.8071319085178608  0.5712346659099442
  0.0677476257525117  0.0630523858345857  0.7986030024273242
  0.3069785789890939  0.0610554827382732  0.8194195881904406
  0.5638823217757483  0.0578291298633975  0.8184676092846860
  0.8193031129545431  0.0563495865310608  0.8124628690735854
  0.0598404409282470  0.3235302366774144  0.8156577852339497
  0.3116076126476536  0.3135994844092390  0.8006149300009578
  0.5640497818304516  0.3198356791526535  0.8104061502082516
  0.8172394145799953  0.3188579095064601  0.8018841512890944
  0.0561607023332373  0.5772416732962223  0.8039663442608895
  0.3090916652549800  0.5706986701413231  0.8110626116943506
  0.5564706476551544  0.5694585846915541  0.8094137389155640
  0.8073062715277229  0.5610043562895340  0.8229548771646157
  0.0683317501392151  0.8044871093988646  0.8159756474612603
  0.3082023922271643  0.8240377574843377  0.8112979392703729
  0.5632802259823418  0.8019155954331074  0.8231464391487536
  0.8320262164746642  0.8129592031438215  0.8020552566405103
