kk                                      
   1.00000000000000     
     0.0000000000000000   10.9373336906932952   10.9373336906932952
    10.9373336906932952    0.0000000000000000   10.9373336906932952
    10.9373336906932952   10.9373336906932952    0.0000000000000000
   Si
   128
Direct
  0.9939609925343120  0.0050680491884663  0.0027162403971346
  0.2550135992248457  0.0113701861006135  0.9981778775603232
  0.4891253230046644  0.0025539555782572  0.0085887440937285
  0.7516235027023370  0.9979177715766951  0.0105580118520336
  0.9987129350352149  0.2459446684514006  0.9971747254985317
  0.2543925150174715  0.2536971640979786  0.0004176818836186
  0.5053924687463081  0.2582326471081160  0.9934876399289649
  0.7444340407003267  0.2435232448265623  0.0186371878362550
  0.9995372154468498  0.5065632410354013  0.9975534139493973
  0.2415706604173309  0.5013876972411708  0.0177090408699456
  0.5034257361479675  0.5022778467213200  0.9909908854565330
  0.7516929339171625  0.5022471439239382  0.9986420633184849
  0.0025410092284943  0.7618123537004138  0.9971020623049540
  0.2516916913640159  0.7469147078007836  0.9967221552212209
  0.4949934127924038  0.7558007863754810  0.0024839882527701
  0.7493860476269703  0.7548458486510086  0.9942460583750758
  0.0000093575996942  0.9990624903210801  0.2559348049840722
  0.2406003113886115  0.0196322250156058  0.2450209095879075
  0.5047564461242260  0.9976461258761660  0.2483642966193997
  0.7513614399475870  0.0087927915460568  0.2522116962275547
  0.9900086424372461  0.2539366878840426  0.2574388570296193
  0.2511930728860108  0.2482608970781683  0.2477826982736815
  0.5012164590714860  0.2401627678338656  0.2466692034063911
  0.7559381731269852  0.2539205686717665  0.2398176973524144
  0.9964436558067362  0.5015197407879981  0.2542971451884952
  0.2527358557851471  0.5102762401021721  0.2427322224038235
  0.5026610209123064  0.4997815792103779  0.2558513666604938
  0.7534565678622656  0.5023829139139195  0.2413109521724905
  0.0036489465741028  0.7425447530978317  0.2372886421018165
  0.2444512293903358  0.7616960612719197  0.2402009360436352
  0.5061397203936835  0.7406775871750853  0.2504118592875031
  0.7490122981167886  0.7424175258921650  0.2427000624178888
  0.0001038026010463  0.9966542139562335  0.5075813801451403
  0.2493043981529013  0.9969105148569852  0.5095387716316253
  0.4943392483195623  0.0029091963360273  0.5068667120915151
  0.7488869660147230  0.0059141289731315  0.4970406577031596
  0.0015284662074251  0.2496723898145419  0.5066435139778136
  0.2408174481541323  0.2550386800192470  0.5044984302114131
  0.5012650599024155  0.2411385276423772  0.5025788149855757
  0.7411752046736666  0.2673571499591816  0.4994367816360494
  0.9993821234289371  0.5036123253874933  0.5042993230435613
  0.2510275764982595  0.4822567105494926  0.5143720678727632
  0.4964196339385438  0.5026165959029640  0.5016395987614288
  0.7453625641893424  0.5053127808059017  0.4962551907310839
  0.9997603801897341  0.7585992952669827  0.5124058542781285
  0.2464242317588941  0.7551578598433935  0.5081206788987345
  0.4978756941690108  0.7638533824316411  0.4957310213848842
  0.7547371934467222  0.7527915415156556  0.4956299982800942
  0.0107068122975420  0.9954603220068563  0.7346023412390110
  0.2535019269421497  0.9983903650173787  0.7460893804544853
  0.4936274488599679  0.0044073222075838  0.7497089584828984
  0.7544495328591907  0.9977499135855226  0.7498644249006645
  0.0000416148266069  0.2473567764814106  0.7475509462318399
  0.2527749830356214  0.2477102490424627  0.7565920241292901
  0.4940089391276246  0.2464990364447601  0.7527271381732916
  0.7501015890403551  0.2472187374065697  0.7479301135836849
  0.0047012179272699  0.5023373169572807  0.7381640781812422
  0.2382078150849267  0.4965075358236746  0.7485316730212972
  0.4910543942109129  0.5034776072957428  0.7567901210876187
  0.7594879371607135  0.5022448636620211  0.7438218473737521
  0.9919862124979630  0.7650482501946811  0.7580895766003266
  0.2575528915316099  0.7502544882599196  0.7539714049646946
  0.4972044274593515  0.7468225916516076  0.7567509536987700
  0.7538527567562809  0.7495516171672492  0.7418788782778165
  0.0425582399629789  0.0698861858564683  0.0668228550830605
  0.3025432619930726  0.0765208929400529  0.0610382369125375
  0.5654921976496396  0.0667452458025437  0.0669586295872620
  0.8041163380022880  0.0539577997512595  0.0801919851883071
  0.0710892144968298  0.3213308502899181  0.0591704298986642
  0.3064005845441145  0.3185956810285973  0.0652983838615384
  0.5697313325349356  0.3195305584891059  0.0487534075453695
  0.8067327217651297  0.3187954021611148  0.0654186881417047
  0.0609546235692449  0.5602534362821956  0.0658107718829228
  0.3132621276295851  0.5675045982448808  0.0603579089571298
  0.5742520007658314  0.5592741240184509  0.0605353854519137
  0.8190611040978482  0.5570586206737715  0.0635383676810264
  0.0637569852099062  0.8103497730005316  0.0625760632149266
  0.3106592513136874  0.8224869909891410  0.0596727761861047
  0.5597399140843393  0.8202761139247698  0.0618779952959656
  0.8153477503937552  0.8103385071440172  0.0640552299966046
  0.0634351634979424  0.0592954164828114  0.3165571350362342
  0.3069799497161227  0.0604464838931449  0.3228221168292364
  0.5609146555518052  0.0606118264557836  0.3080785322735977
  0.8108694391906823  0.0673241552943864  0.3147532219808227
  0.0625430004721395  0.3191718279309299  0.3085030702886442
  0.3023010888788349  0.3104768830621225  0.3150679171598085
  0.5506712276784853  0.3185956641619754  0.3187085236947311
  0.8067694499797256  0.3256802552855973  0.3091309562676514
  0.0545981640036217  0.5616225228866938  0.3185789769290963
  0.3149297730952014  0.5448633199106894  0.3187712462573842
  0.5620443588094517  0.5490347505095414  0.3254482175237854
  0.8058472725308619  0.5609746731073884  0.3211730777030155
  0.0536413197816046  0.8163870968576106  0.3131917975346923
  0.3142618051641364  0.8209961810569624  0.3078038445227804
  0.5474394912566396  0.8193918063695307  0.3103843498669292
  0.8014783359364159  0.8126128875509835  0.3156177708402552
  0.0718155439012378  0.0582691254879038  0.5656519271283145
  0.3202809322366420  0.0559913675791179  0.5699663763442260
  0.5504529071473172  0.0642108323420061  0.5718233393440286
  0.8101237381692599  0.0638227261020745  0.5545180819625060
  0.0614153668039492  0.3161097603235703  0.5667435852381359
  0.3189800381567807  0.3107404936990505  0.5560469474475198
  0.5542151878022707  0.3103727562118550  0.5723271137848798
  0.8200790568917782  0.3070358064657412  0.5594762685659376
  0.0672737035299775  0.5599138635970817  0.5570255767299699
  0.3188147632597946  0.5720821358457897  0.5553198794222141
  0.5563918361810849  0.5712855767569849  0.5624295879683316
  0.8107353146768759  0.5572323366106104  0.5548310316947180
  0.0643532046661690  0.8211389294021387  0.5620390709477050
  0.3092579959352335  0.8108496685397668  0.5745805106001285
  0.5632878690470235  0.8295461786032092  0.5551043593664886
  0.8085559480366982  0.8190148223082332  0.5636848648277564
  0.0677385095621759  0.0609383697217325  0.8128526976209756
  0.3203084680314419  0.0739272909258446  0.8005004801613609
  0.5769594088547265  0.0470793975694619  0.8214357190668480
  0.8165333175780134  0.0538591040431413  0.8184969297751650
  0.0656931096211153  0.3076029211628679  0.8128213809920481
  0.3038481659748484  0.3230851460945132  0.8164963995631922
  0.5623788307099389  0.3146538133985999  0.7993613999902749
  0.8155995568756396  0.3045529325870362  0.8098584035641849
  0.0661315030747005  0.5651393493581125  0.8094177601297972
  0.3126808543422683  0.5683745099500754  0.8055885091366690
  0.5715064677407398  0.5647048779074666  0.7979181838076173
  0.8091042671953019  0.5676862057007241  0.8131835366958526
  0.0677417040728372  0.8129485757488268  0.8130528878955943
  0.3079526158439023  0.8156617731782845  0.8161063984486319
  0.5564351981782707  0.8145416652027535  0.8167060620859132
  0.8047518506678202  0.8212487066630771  0.8100520439791623
 
  0.00000000E+00  0.00000000E+00  0.00000000E+00
  0.00000000E+00  0.00000000E+00  0.00000000E+00
  0.00000000E+00  0.00000000E+00  0.00000000E+00
  0.00000000E+00  0.00000000E+00  0.00000000E+00
  0.00000000E+00  0.00000000E+00  0.00000000E+00
  0.00000000E+00  0.00000000E+00  0.00000000E+00
  0.00000000E+00  0.00000000E+00  0.00000000E+00
  0.00000000E+00  0.00000000E+00  0.00000000E+00
  0.00000000E+00  0.00000000E+00  0.00000000E+00
  0.00000000E+00  0.00000000E+00  0.00000000E+00
  0.00000000E+00  0.00000000E+00  0.00000000E+00
  0.00000000E+00  0.00000000E+00  0.00000000E+00
  0.00000000E+00  0.00000000E+00  0.00000000E+00
  0.00000000E+00  0.00000000E+00  0.00000000E+00
  0.00000000E+00  0.00000000E+00  0.00000000E+00
  0.00000000E+00  0.00000000E+00  0.00000000E+00
  0.00000000E+00  0.00000000E+00  0.00000000E+00
  0.00000000E+00  0.00000000E+00  0.00000000E+00
  0.00000000E+00  0.00000000E+00  0.00000000E+00
  0.00000000E+00  0.00000000E+00  0.00000000E+00
  0.00000000E+00  0.00000000E+00  0.00000000E+00
  0.00000000E+00  0.00000000E+00  0.00000000E+00
  0.00000000E+00  0.00000000E+00  0.00000000E+00
  0.00000000E+00  0.00000000E+00  0.00000000E+00
  0.00000000E+00  0.00000000E+00  0.00000000E+00
  0.00000000E+00  0.00000000E+00  0.00000000E+00
  0.00000000E+00  0.00000000E+00  0.00000000E+00
  0.00000000E+00  0.00000000E+00  0.00000000E+00
  0.00000000E+00  0.00000000E+00  0.00000000E+00
  0.00000000E+00  0.00000000E+00  0.00000000E+00
  0.00000000E+00  0.00000000E+00  0.00000000E+00
  0.00000000E+00  0.00000000E+00  0.00000000E+00
  0.00000000E+00  0.00000000E+00  0.00000000E+00
  0.00000000E+00  0.00000000E+00  0.00000000E+00
  0.00000000E+00  0.00000000E+00  0.00000000E+00
  0.00000000E+00  0.00000000E+00  0.00000000E+00
  0.00000000E+00  0.00000000E+00  0.00000000E+00
  0.00000000E+00  0.00000000E+00  0.00000000E+00
  0.00000000E+00  0.00000000E+00  0.00000000E+00
  0.00000000E+00  0.00000000E+00  0.00000000E+00
  0.00000000E+00  0.00000000E+00  0.00000000E+00
  0.00000000E+00  0.00000000E+00  0.00000000E+00
  0.00000000E+00  0.00000000E+00  0.00000000E+00
  0.00000000E+00  0.00000000E+00  0.00000000E+00
  0.00000000E+00  0.00000000E+00  0.00000000E+00
  0.00000000E+00  0.00000000E+00  0.00000000E+00
  0.00000000E+00  0.00000000E+00  0.00000000E+00
  0.00000000E+00  0.00000000E+00  0.00000000E+00
  0.00000000E+00  0.00000000E+00  0.00000000E+00
  0.00000000E+00  0.00000000E+00  0.00000000E+00
  0.00000000E+00  0.00000000E+00  0.00000000E+00
  0.00000000E+00  0.00000000E+00  0.00000000E+00
  0.00000000E+00  0.00000000E+00  0.00000000E+00
  0.00000000E+00  0.00000000E+00  0.00000000E+00
  0.00000000E+00  0.00000000E+00  0.00000000E+00
  0.00000000E+00  0.00000000E+00  0.00000000E+00
  0.00000000E+00  0.00000000E+00  0.00000000E+00
  0.00000000E+00  0.00000000E+00  0.00000000E+00
  0.00000000E+00  0.00000000E+00  0.00000000E+00
  0.00000000E+00  0.00000000E+00  0.00000000E+00
  0.00000000E+00  0.00000000E+00  0.00000000E+00
  0.00000000E+00  0.00000000E+00  0.00000000E+00
  0.00000000E+00  0.00000000E+00  0.00000000E+00
  0.00000000E+00  0.00000000E+00  0.00000000E+00
  0.00000000E+00  0.00000000E+00  0.00000000E+00
  0.00000000E+00  0.00000000E+00  0.00000000E+00
  0.00000000E+00  0.00000000E+00  0.00000000E+00
  0.00000000E+00  0.00000000E+00  0.00000000E+00
  0.00000000E+00  0.00000000E+00  0.00000000E+00
  0.00000000E+00  0.00000000E+00  0.00000000E+00
  0.00000000E+00  0.00000000E+00  0.00000000E+00
  0.00000000E+00  0.00000000E+00  0.00000000E+00
  0.00000000E+00  0.00000000E+00  0.00000000E+00
  0.00000000E+00  0.00000000E+00  0.00000000E+00
  0.00000000E+00  0.00000000E+00  0.00000000E+00
  0.00000000E+00  0.00000000E+00  0.00000000E+00
  0.00000000E+00  0.00000000E+00  0.00000000E+00
  0.00000000E+00  0.00000000E+00  0.00000000E+00
  0.00000000E+00  0.00000000E+00  0.00000000E+00
  0.00000000E+00  0.00000000E+00  0.00000000E+00
  0.00000000E+00  0.00000000E+00  0.00000000E+00
  0.00000000E+00  0.00000000E+00  0.00000000E+00
  0.00000000E+00  0.00000000E+00  0.00000000E+00
  0.00000000E+00  0.00000000E+00  0.00000000E+00
  0.00000000E+00  0.00000000E+00  0.00000000E+00
  0.00000000E+00  0.00000000E+00  0.00000000E+00
  0.00000000E+00  0.00000000E+00  0.00000000E+00
  0.00000000E+00  0.00000000E+00  0.00000000E+00
  0.00000000E+00  0.00000000E+00  0.00000000E+00
  0.00000000E+00  0.00000000E+00  0.00000000E+00
  0.00000000E+00  0.00000000E+00  0.00000000E+00
  0.00000000E+00  0.00000000E+00  0.00000000E+00
  0.00000000E+00  0.00000000E+00  0.00000000E+00
  0.00000000E+00  0.00000000E+00  0.00000000E+00
  0.00000000E+00  0.00000000E+00  0.00000000E+00
  0.00000000E+00  0.00000000E+00  0.00000000E+00
  0.00000000E+00  0.00000000E+00  0.00000000E+00
  0.00000000E+00  0.00000000E+00  0.00000000E+00
  0.00000000E+00  0.00000000E+00  0.00000000E+00
  0.00000000E+00  0.00000000E+00  0.00000000E+00
  0.00000000E+00  0.00000000E+00  0.00000000E+00
  0.00000000E+00  0.00000000E+00  0.00000000E+00
  0.00000000E+00  0.00000000E+00  0.00000000E+00
  0.00000000E+00  0.00000000E+00  0.00000000E+00
  0.00000000E+00  0.00000000E+00  0.00000000E+00
  0.00000000E+00  0.00000000E+00  0.00000000E+00
  0.00000000E+00  0.00000000E+00  0.00000000E+00
  0.00000000E+00  0.00000000E+00  0.00000000E+00
  0.00000000E+00  0.00000000E+00  0.00000000E+00
  0.00000000E+00  0.00000000E+00  0.00000000E+00
  0.00000000E+00  0.00000000E+00  0.00000000E+00
  0.00000000E+00  0.00000000E+00  0.00000000E+00
  0.00000000E+00  0.00000000E+00  0.00000000E+00
  0.00000000E+00  0.00000000E+00  0.00000000E+00
  0.00000000E+00  0.00000000E+00  0.00000000E+00
  0.00000000E+00  0.00000000E+00  0.00000000E+00
  0.00000000E+00  0.00000000E+00  0.00000000E+00
  0.00000000E+00  0.00000000E+00  0.00000000E+00
  0.00000000E+00  0.00000000E+00  0.00000000E+00
  0.00000000E+00  0.00000000E+00  0.00000000E+00
  0.00000000E+00  0.00000000E+00  0.00000000E+00
  0.00000000E+00  0.00000000E+00  0.00000000E+00
  0.00000000E+00  0.00000000E+00  0.00000000E+00
  0.00000000E+00  0.00000000E+00  0.00000000E+00
  0.00000000E+00  0.00000000E+00  0.00000000E+00
  0.00000000E+00  0.00000000E+00  0.00000000E+00
  0.00000000E+00  0.00000000E+00  0.00000000E+00
  0.00000000E+00  0.00000000E+00  0.00000000E+00
