kk
 1.0000000000000000
     0.0000000000000000   10.9373336906932952   10.9373336906932952
    10.9373336906932952    0.0000000000000000   10.9373336906932952
    10.9373336906932952   10.9373336906932952    0.0000000000000000
 128
Direct
  0.9939609925343130  0.0050680491884631  0.0027162403971322
  0.2550135992248448  0.0113701861006147  0.9981778775603233
  0.4891253230046658  0.0025539555782568  0.0085887440937257
  0.7516235027023349  0.9979177715766980  0.0105580118520313
  0.9987129350352119  0.2459446684513992  0.9971747254985337
  0.2543925150174719  0.2536971640979796  0.0004176818836172
  0.5053924687463073  0.2582326471081181  0.9934876399289619
  0.7444340407003265  0.2435232448265626  0.0186371878362570
  0.9995372154468519  0.5065632410354012  0.9975534139493999
  0.2415706604173277  0.5013876972411736  0.0177090408699461
  0.5034257361479646  0.5022778467213173  0.9909908854565300
  0.7516929339171594  0.5022471439239379  0.9986420633184826
  0.0025410092284926  0.7618123537004107  0.9971020623049532
  0.2516916913640158  0.7469147078007857  0.9967221552212230
  0.4949934127924053  0.7558007863754841  0.0024839882527674
  0.7493860476269686  0.7548458486510102  0.9942460583750731
  0.0000093575996940  0.9990624903210804  0.2559348049840709
  0.2406003113886143  0.0196322250156034  0.2450209095879103
  0.5047564461242279  0.9976461258761634  0.2483642966194008
  0.7513614399475894  0.0087927915460578  0.2522116962275526
  0.9900086424372443  0.2539366878840448  0.2574388570296162
  0.2511930728860078  0.2482608970781712  0.2477826982736817
  0.5012164590714853  0.2401627678338645  0.2466692034063941
  0.7559381731269844  0.2539205686717699  0.2398176973524152
  0.9964436558067351  0.5015197407879967  0.2542971451884973
  0.2527358557851482  0.5102762401021708  0.2427322224038227
  0.5026610209123084  0.4997815792103782  0.2558513666604963
  0.7534565678622669  0.5023829139139196  0.2413109521724924
  0.0036489465740996  0.7425447530978292  0.2372886421018158
  0.2444512293903342  0.7616960612719184  0.2402009360436350
  0.5061397203936852  0.7406775871750870  0.2504118592875007
  0.7490122981167887  0.7424175258921674  0.2427000624178912
  0.0001038026010490  0.9966542139562361  0.5075813801451413
  0.2493043981529039  0.9969105148569825  0.5095387716316244
  0.4943392483195647  0.0029091963360308  0.5068667120915132
  0.7488869660147257  0.0059141289731329  0.4970406577031607
  0.0015284662074265  0.2496723898145401  0.5066435139778160
  0.2408174481541341  0.2550386800192440  0.5044984302114156
  0.5012650599024150  0.2411385276423741  0.5025788149855790
  0.7411752046736687  0.2673571499591816  0.4994367816360479
  0.9993821234289396  0.5036123253874935  0.5042993230435633
  0.2510275764982605  0.4822567105494930  0.5143720678727626
  0.4964196339385469  0.5026165959029645  0.5016395987614264
  0.7453625641893438  0.5053127808059050  0.4962551907310856
  0.9997603801897325  0.7585992952669799  0.5124058542781285
  0.2464242317588969  0.7551578598433900  0.5081206788987365
  0.4978756941690127  0.7638533824316417  0.4957310213848869
  0.7547371934467249  0.7527915415156584  0.4956299982800947
  0.0107068122975403  0.9954603220068562  0.7346023412390127
  0.2535019269421468  0.9983903650173811  0.7460893804544859
  0.4936274488599655  0.0044073222075829  0.7497089584829013
  0.7544495328591933  0.9977499135855210  0.7498644249006654
  0.0000416148266098  0.2473567764814086  0.7475509462318390
  0.2527749830356248  0.2477102490424655  0.7565920241292924
  0.4940089391276219  0.2464990364447592  0.7527271381732888
  0.7501015890403582  0.2472187374065682  0.7479301135836879
  0.0047012179272682  0.5023373169572786  0.7381640781812457
  0.2382078150849273  0.4965075358236763  0.7485316730212985
  0.4910543942109161  0.5034776072957461  0.7567901210876183
  0.7594879371607127  0.5022448636620204  0.7438218473737506
  0.9919862124979664  0.7650482501946834  0.7580895766003301
  0.2575528915316073  0.7502544882599217  0.7539714049646927
  0.4972044274593493  0.7468225916516043  0.7567509536987725
  0.7538527567562796  0.7495516171672507  0.7418788782778158
  0.0425582399629790  0.0698861858564670  0.0668228550830581
  0.3025432619930749  0.0765208929400526  0.0610382369125373
  0.5654921976496416  0.0667452458025459  0.0669586295872642
  0.8041163380022869  0.0539577997512591  0.0801919851883039
  0.0710892144968298  0.3213308502899193  0.0591704298986649
  0.3064005845441124  0.3185956810285962  0.0652983838615393
  0.5697313325349330  0.3195305584891037  0.0487534075453664
  0.8067327217651318  0.3187954021611124  0.0654186881417034
  0.0609546235692472  0.5602534362821988  0.0658107718829235
  0.3132621276295864  0.5675045982448790  0.0603579089571323
  0.5742520007658314  0.5592741240184476  0.0605353854519137
  0.8190611040978469  0.5570586206737743  0.0635383676810283
  0.0637569852099033  0.8103497730005326  0.0625760632149235
  0.3106592513136885  0.8224869909891411  0.0596727761861043
  0.5597399140843363  0.8202761139247678  0.0618779952959650
  0.8153477503937582  0.8103385071440149  0.0640552299966077
  0.0634351634979428  0.0592954164828101  0.3165571350362344
  0.3069799497161262  0.0604464838931429  0.3228221168292357
  0.5609146555518043  0.0606118264557841  0.3080785322735964
  0.8108694391906798  0.0673241552943835  0.3147532219808198
  0.0625430004721387  0.3191718279309306  0.3085030702886436
  0.3023010888788379  0.3104768830621198  0.3150679171598066
  0.5506712276784862  0.3185956641619725  0.3187085236947325
  0.8067694499797228  0.3256802552855987  0.3091309562676507
  0.0545981640036233  0.5616225228866926  0.3185789769290946
  0.3149297730952017  0.5448633199106908  0.3187712462573809
  0.5620443588094499  0.5490347505095402  0.3254482175237881
  0.8058472725308601  0.5609746731073885  0.3211730777030162
  0.0536413197816021  0.8163870968576095  0.3131917975346912
  0.3142618051641348  0.8209961810569633  0.3078038445227836
  0.5474394912566360  0.8193918063695311  0.3103843498669295
  0.8014783359364135  0.8126128875509827  0.3156177708402523
  0.0718155439012374  0.0582691254879024  0.5656519271283159
  0.3202809322366428  0.0559913675791174  0.5699663763442264
  0.5504529071473183  0.0642108323420088  0.5718233393440292
  0.8101237381692616  0.0638227261020710  0.5545180819625048
  0.0614153668039501  0.3161097603235735  0.5667435852381330
  0.3189800381567807  0.3107404936990502  0.5560469474475181
  0.5542151878022732  0.3103727562118583  0.5723271137848800
  0.8200790568917790  0.3070358064657446  0.5594762685659402
  0.0672737035299764  0.5599138635970811  0.5570255767299729
  0.3188147632597965  0.5720821358457898  0.5553198794222136
  0.5563918361810848  0.5712855767569844  0.5624295879683324
  0.8107353146768771  0.5572323366106072  0.5548310316947178
  0.0643532046661675  0.8211389294021393  0.5620390709477017
  0.3092579959352351  0.8108496685397683  0.5745805106001286
  0.5632878690470209  0.8295461786032079  0.5551043593664864
  0.8085559480367006  0.8190148223082353  0.5636848648277563
  0.0677385095621787  0.0609383697217352  0.8128526976209740
  0.3203084680314387  0.0739272909258476  0.8005004801613613
  0.5769594088547271  0.0470793975694645  0.8214357190668470
  0.8165333175780135  0.0538591040431403  0.8184969297751635
  0.0656931096211184  0.3076029211628646  0.8128213809920508
  0.3038481659748491  0.3230851460945113  0.8164963995631909
  0.5623788307099423  0.3146538133986006  0.7993613999902746
  0.8155995568756362  0.3045529325870353  0.8098584035641817
  0.0661315030747014  0.5651393493581135  0.8094177601297945
  0.3126808543422662  0.5683745099500751  0.8055885091366688
  0.5715064677407374  0.5647048779074688  0.7979181838076138
  0.8091042671953013  0.5676862057007255  0.8131835366958536
  0.0677417040728342  0.8129485757488287  0.8130528878955930
  0.3079526158439033  0.8156617731782864  0.8161063984486286
  0.5564351981782703  0.8145416652027547  0.8167060620859150
  0.8047518506678190  0.8212487066630774  0.8100520439791650
