kk                                      
   1.00000000000000     
     0.0000000000000000   10.9373336906932952   10.9373336906932952
    10.9373336906932952    0.0000000000000000   10.9373336906932952
    10.9373336906932952   10.9373336906932952    0.0000000000000000
   Si
   128
Direct
  0.9986882688307759  0.0096034609076483  0.0047639596306439
  0.2744717950319142  0.9912208930075366  0.9886391271427115
  0.4960343298525487  0.0098741111782559  0.9871741819413273
  0.7642184686338069  0.9936692894329227  0.9950472218103243
  0.9780275390452786  0.2632842312082744  0.9977231720384054
  0.2505613387945829  0.2504263807476761  0.0004780980602135
  0.4946790270260806  0.2460429418624699  0.0080750141513235
  0.7427041664843159  0.2544247903025578  0.0048276773277038
  0.0212198339268426  0.4915196628561134  0.9942202491363901
  0.2579785538396919  0.4923912867031746  0.0013125657286963
  0.5029880492768370  0.5045055914446763  0.9909554662068984
  0.7545794353385844  0.5103028076866849  0.9957599040212344
  0.0165706490036044  0.7516566854819544  0.9948087296462802
  0.2614857717022900  0.7452207803327227  0.0034182002831926
  0.4975078003030049  0.7608096625993781  0.9992948727720332
  0.7551472421101693  0.7484773798585991  0.9936155731127769
  0.9889421166424768  0.9975729873347134  0.2550641207330955
  0.2416223689981578  0.0008170545413080  0.2514612828099558
  0.5038962332924299  0.9938586208298759  0.2476918378649628
  0.7489589781164199  0.9921419492159131  0.2586584634079543
  0.0010193359033579  0.2604033460366040  0.2370807431818704
  0.2417916881407649  0.2567650955490350  0.2577930496549001
  0.4969654153663683  0.2612971663496566  0.2509380159865131
  0.7444387311665395  0.2510096469484893  0.2448666394904819
  0.9998971571380579  0.5140628272054926  0.2486095272548638
  0.2540446404130847  0.4920246410389808  0.2481032426817578
  0.4983779611749171  0.5132256977997827  0.2454936950655480
  0.7538640491280120  0.4937840442369037  0.2460272117439501
  0.9941279715141178  0.7665770760586454  0.2398002468814866
  0.2513790987584628  0.7497476773434784  0.2555759753465168
  0.4921254982867183  0.7573305678286317  0.2539105381800866
  0.7437208531670905  0.7418777898110491  0.2575823932747596
  0.0061298226041444  0.0078384315809998  0.4916854099506267
  0.2468582755905686  0.9977331560987182  0.4994021673543543
  0.5109404078968112  0.9960195145728150  0.5040610471240043
  0.7466073028017846  0.9997311190440143  0.4923809512154733
  0.9962823326639807  0.2525912576757037  0.5103901804769677
  0.2523208163389938  0.2529626101964126  0.4980573733949853
  0.5048878980340632  0.2577132489668017  0.4980582793797481
  0.7505599125327151  0.2510627015939306  0.5066510393416124
  0.9935230515697100  0.4926048334584365  0.5168367110230818
  0.2418347945294101  0.4999887364707476  0.5005154814258290
  0.4908582919213273  0.5080718813899878  0.5032964807714748
  0.7425878449015784  0.5020312903364967  0.5026981955096659
  0.0044902054858298  0.7558524109320715  0.4922966799466195
  0.2337265486827889  0.7514770803250954  0.5107478428608516
  0.4931468257223415  0.7563105145289981  0.4971860465704481
  0.7501978087991361  0.7501753597766694  0.5020671791884723
  0.9929586871495459  0.0118886621198655  0.7446640775511355
  0.2422505779097506  0.0073916885867220  0.7436693948255311
  0.5041390927648592  0.0061358965130793  0.7489096267371096
  0.7392748553174755  0.9922266832494913  0.7617085243523007
  0.9934611423904869  0.2539516686577699  0.7490991049849782
  0.2493958772036464  0.2481731641329432  0.7631578357359103
  0.5049585963011438  0.2377126322470886  0.7440391564125406
  0.7516899602661127  0.2377648967039150  0.7544951045688535
  0.9999222328182427  0.5005039156385251  0.7426886636140395
  0.2522956069574178  0.5071174597325125  0.7478387347380107
  0.4919989797308446  0.5060155004809914  0.7324842262944316
  0.7515517218705767  0.5085386873238988  0.7363840684205343
  0.9997536953939345  0.7555835599435170  0.7468236760139533
  0.2605391495394684  0.7495659029423862  0.7553330824586268
  0.5008033854742635  0.7630570208909901  0.7456025782002342
  0.7533344850407602  0.7409846044022927  0.7689765181474328
  0.0635918781765454  0.0604788414201423  0.0785294924801789
  0.3155534690644757  0.0593661136327697  0.0630242370937779
  0.5636973905137594  0.0713481115402033  0.0608555190380002
  0.8138590130166321  0.0579441735107267  0.0586790695116832
  0.0720215387698602  0.3055079071103393  0.0622800173753149
  0.3058548436343003  0.3098921725947861  0.0683487082072105
  0.5573182477405325  0.3238392057284543  0.0593192239391485
  0.8101608050862126  0.3170939252926388  0.0628347456521396
  0.0641764325069119  0.5620485062871055  0.0639569166977694
  0.3078098762410590  0.5614153909083299  0.0672424887262153
  0.5532145195239195  0.5658404061034403  0.0607103768770898
  0.8140387433359422  0.5727488053041156  0.0499477277542582
  0.0631817231075615  0.8106432650990811  0.0634450375751285
  0.3207996398782385  0.8037287932683626  0.0688398313979803
  0.5712800400693325  0.8161672737855881  0.0524760896458574
  0.8250864930681345  0.8150090825483645  0.0568194900229031
  0.0504357445875243  0.0743167461904122  0.3124743370976759
  0.3075565422283049  0.0612551453665162  0.3124061243529823
  0.5529969292704209  0.0690827977423609  0.3057949369267305
  0.8139673251273436  0.0695075542932031  0.3080186914624079
  0.0667056223871114  0.3152163242759940  0.3056596606041282
  0.3152692951031213  0.3100641788336134  0.3105007562781381
  0.5477479540663808  0.3154334578530751  0.3273511312676050
  0.8130342186988173  0.3112042140549534  0.3159521339763529
  0.0846384128846438  0.5656339130006671  0.2909817155934462
  0.3136900099835955  0.5634942435211983  0.3120744960401467
  0.5541223420861314  0.5742166521450898  0.3067839912286985
  0.8136803123443244  0.5538285228589075  0.3107405187812375
  0.0726627251728047  0.8161456075221167  0.3045780559079816
  0.3171126340296837  0.8113216753107366  0.3114693585396324
  0.5611932502941173  0.8044900514593678  0.3182775091690004
  0.8110316705406930  0.8137855756203862  0.3195562063436554
  0.0710210010779164  0.0483177385593407  0.5674609032460580
  0.3243446644168841  0.0484141994324645  0.5687251160276858
  0.5700775113860530  0.0564308041253767  0.5532373541702142
  0.8029144151032739  0.0666121015663350  0.5540902972142092
  0.0586979275805817  0.3173237588509252  0.5624305933834961
  0.3264936230248026  0.3053746020140764  0.5587532708444272
  0.5512822467217475  0.3139630256124732  0.5739093620248639
  0.8107986757301617  0.2983819527936120  0.5768616948982697
  0.0642940848222295  0.5685444520088652  0.5513829835356674
  0.3119540502470528  0.5674306967992209  0.5637722063853303
  0.5659504953714034  0.5575270596076862  0.5594031635774286
  0.8144729326519169  0.5598134029603443  0.5582996443482671
  0.0538106648943923  0.8066674342760223  0.5697964211976227
  0.3107123686043565  0.8034169822366835  0.5717931159164564
  0.5705473147534477  0.8095959746294668  0.5699131783386235
  0.8068338812494247  0.8167076294296507  0.5569398680505699
  0.0677410838165713  0.0547516846987364  0.8074139447947672
  0.3054961801888894  0.0682440602879097  0.8119831348850965
  0.5605395302475813  0.0616870971026628  0.8089224850080114
  0.8098251474176692  0.0598752982888797  0.8203722175455610
  0.0481167617594735  0.3128734268915281  0.8251789172442088
  0.3140167846434281  0.3062952935047321  0.8175983206772628
  0.5660963408512529  0.3145290135075243  0.8055203360455891
  0.8094367703538481  0.3145442524980453  0.8146067883133767
  0.0610619598991136  0.5708733684407790  0.8086005403588246
  0.3137981176326363  0.5634392489312035  0.8086348516099946
  0.5662279373844470  0.5569654398475095  0.8157759092687087
  0.8165450476108518  0.5714542815644563  0.8051508970134336
  0.0708452316463806  0.8160653466507242  0.8090773598235046
  0.3131210577780621  0.8120456773515912  0.8158778870254650
  0.5693603397017384  0.7994999562568452  0.8185056494573288
  0.8142432824240871  0.8197659922789597  0.8190247866955644
 
  0.00000000E+00  0.00000000E+00  0.00000000E+00
  0.00000000E+00  0.00000000E+00  0.00000000E+00
  0.00000000E+00  0.00000000E+00  0.00000000E+00
  0.00000000E+00  0.00000000E+00  0.00000000E+00
  0.00000000E+00  0.00000000E+00  0.00000000E+00
  0.00000000E+00  0.00000000E+00  0.00000000E+00
  0.00000000E+00  0.00000000E+00  0.00000000E+00
  0.00000000E+00  0.00000000E+00  0.00000000E+00
  0.00000000E+00  0.00000000E+00  0.00000000E+00
  0.00000000E+00  0.00000000E+00  0.00000000E+00
  0.00000000E+00  0.00000000E+00  0.00000000E+00
  0.00000000E+00  0.00000000E+00  0.00000000E+00
  0.00000000E+00  0.00000000E+00  0.00000000E+00
  0.00000000E+00  0.00000000E+00  0.00000000E+00
  0.00000000E+00  0.00000000E+00  0.00000000E+00
  0.00000000E+00  0.00000000E+00  0.00000000E+00
  0.00000000E+00  0.00000000E+00  0.00000000E+00
  0.00000000E+00  0.00000000E+00  0.00000000E+00
  0.00000000E+00  0.00000000E+00  0.00000000E+00
  0.00000000E+00  0.00000000E+00  0.00000000E+00
  0.00000000E+00  0.00000000E+00  0.00000000E+00
  0.00000000E+00  0.00000000E+00  0.00000000E+00
  0.00000000E+00  0.00000000E+00  0.00000000E+00
  0.00000000E+00  0.00000000E+00  0.00000000E+00
  0.00000000E+00  0.00000000E+00  0.00000000E+00
  0.00000000E+00  0.00000000E+00  0.00000000E+00
  0.00000000E+00  0.00000000E+00  0.00000000E+00
  0.00000000E+00  0.00000000E+00  0.00000000E+00
  0.00000000E+00  0.00000000E+00  0.00000000E+00
  0.00000000E+00  0.00000000E+00  0.00000000E+00
  0.00000000E+00  0.00000000E+00  0.00000000E+00
  0.00000000E+00  0.00000000E+00  0.00000000E+00
  0.00000000E+00  0.00000000E+00  0.00000000E+00
  0.00000000E+00  0.00000000E+00  0.00000000E+00
  0.00000000E+00  0.00000000E+00  0.00000000E+00
  0.00000000E+00  0.00000000E+00  0.00000000E+00
  0.00000000E+00  0.00000000E+00  0.00000000E+00
  0.00000000E+00  0.00000000E+00  0.00000000E+00
  0.00000000E+00  0.00000000E+00  0.00000000E+00
  0.00000000E+00  0.00000000E+00  0.00000000E+00
  0.00000000E+00  0.00000000E+00  0.00000000E+00
  0.00000000E+00  0.00000000E+00  0.00000000E+00
  0.00000000E+00  0.00000000E+00  0.00000000E+00
  0.00000000E+00  0.00000000E+00  0.00000000E+00
  0.00000000E+00  0.00000000E+00  0.00000000E+00
  0.00000000E+00  0.00000000E+00  0.00000000E+00
  0.00000000E+00  0.00000000E+00  0.00000000E+00
  0.00000000E+00  0.00000000E+00  0.00000000E+00
  0.00000000E+00  0.00000000E+00  0.00000000E+00
  0.00000000E+00  0.00000000E+00  0.00000000E+00
  0.00000000E+00  0.00000000E+00  0.00000000E+00
  0.00000000E+00  0.00000000E+00  0.00000000E+00
  0.00000000E+00  0.00000000E+00  0.00000000E+00
  0.00000000E+00  0.00000000E+00  0.00000000E+00
  0.00000000E+00  0.00000000E+00  0.00000000E+00
  0.00000000E+00  0.00000000E+00  0.00000000E+00
  0.00000000E+00  0.00000000E+00  0.00000000E+00
  0.00000000E+00  0.00000000E+00  0.00000000E+00
  0.00000000E+00  0.00000000E+00  0.00000000E+00
  0.00000000E+00  0.00000000E+00  0.00000000E+00
  0.00000000E+00  0.00000000E+00  0.00000000E+00
  0.00000000E+00  0.00000000E+00  0.00000000E+00
  0.00000000E+00  0.00000000E+00  0.00000000E+00
  0.00000000E+00  0.00000000E+00  0.00000000E+00
  0.00000000E+00  0.00000000E+00  0.00000000E+00
  0.00000000E+00  0.00000000E+00  0.00000000E+00
  0.00000000E+00  0.00000000E+00  0.00000000E+00
  0.00000000E+00  0.00000000E+00  0.00000000E+00
  0.00000000E+00  0.00000000E+00  0.00000000E+00
  0.00000000E+00  0.00000000E+00  0.00000000E+00
  0.00000000E+00  0.00000000E+00  0.00000000E+00
  0.00000000E+00  0.00000000E+00  0.00000000E+00
  0.00000000E+00  0.00000000E+00  0.00000000E+00
  0.00000000E+00  0.00000000E+00  0.00000000E+00
  0.00000000E+00  0.00000000E+00  0.00000000E+00
  0.00000000E+00  0.00000000E+00  0.00000000E+00
  0.00000000E+00  0.00000000E+00  0.00000000E+00
  0.00000000E+00  0.00000000E+00  0.00000000E+00
  0.00000000E+00  0.00000000E+00  0.00000000E+00
  0.00000000E+00  0.00000000E+00  0.00000000E+00
  0.00000000E+00  0.00000000E+00  0.00000000E+00
  0.00000000E+00  0.00000000E+00  0.00000000E+00
  0.00000000E+00  0.00000000E+00  0.00000000E+00
  0.00000000E+00  0.00000000E+00  0.00000000E+00
  0.00000000E+00  0.00000000E+00  0.00000000E+00
  0.00000000E+00  0.00000000E+00  0.00000000E+00
  0.00000000E+00  0.00000000E+00  0.00000000E+00
  0.00000000E+00  0.00000000E+00  0.00000000E+00
  0.00000000E+00  0.00000000E+00  0.00000000E+00
  0.00000000E+00  0.00000000E+00  0.00000000E+00
  0.00000000E+00  0.00000000E+00  0.00000000E+00
  0.00000000E+00  0.00000000E+00  0.00000000E+00
  0.00000000E+00  0.00000000E+00  0.00000000E+00
  0.00000000E+00  0.00000000E+00  0.00000000E+00
  0.00000000E+00  0.00000000E+00  0.00000000E+00
  0.00000000E+00  0.00000000E+00  0.00000000E+00
  0.00000000E+00  0.00000000E+00  0.00000000E+00
  0.00000000E+00  0.00000000E+00  0.00000000E+00
  0.00000000E+00  0.00000000E+00  0.00000000E+00
  0.00000000E+00  0.00000000E+00  0.00000000E+00
  0.00000000E+00  0.00000000E+00  0.00000000E+00
  0.00000000E+00  0.00000000E+00  0.00000000E+00
  0.00000000E+00  0.00000000E+00  0.00000000E+00
  0.00000000E+00  0.00000000E+00  0.00000000E+00
  0.00000000E+00  0.00000000E+00  0.00000000E+00
  0.00000000E+00  0.00000000E+00  0.00000000E+00
  0.00000000E+00  0.00000000E+00  0.00000000E+00
  0.00000000E+00  0.00000000E+00  0.00000000E+00
  0.00000000E+00  0.00000000E+00  0.00000000E+00
  0.00000000E+00  0.00000000E+00  0.00000000E+00
  0.00000000E+00  0.00000000E+00  0.00000000E+00
  0.00000000E+00  0.00000000E+00  0.00000000E+00
  0.00000000E+00  0.00000000E+00  0.00000000E+00
  0.00000000E+00  0.00000000E+00  0.00000000E+00
  0.00000000E+00  0.00000000E+00  0.00000000E+00
  0.00000000E+00  0.00000000E+00  0.00000000E+00
  0.00000000E+00  0.00000000E+00  0.00000000E+00
  0.00000000E+00  0.00000000E+00  0.00000000E+00
  0.00000000E+00  0.00000000E+00  0.00000000E+00
  0.00000000E+00  0.00000000E+00  0.00000000E+00
  0.00000000E+00  0.00000000E+00  0.00000000E+00
  0.00000000E+00  0.00000000E+00  0.00000000E+00
  0.00000000E+00  0.00000000E+00  0.00000000E+00
  0.00000000E+00  0.00000000E+00  0.00000000E+00
  0.00000000E+00  0.00000000E+00  0.00000000E+00
  0.00000000E+00  0.00000000E+00  0.00000000E+00
  0.00000000E+00  0.00000000E+00  0.00000000E+00
  0.00000000E+00  0.00000000E+00  0.00000000E+00
