kk
 1.0000000000000000
     0.0000000000000000   10.9373336906932952   10.9373336906932952
    10.9373336906932952    0.0000000000000000   10.9373336906932952
    10.9373336906932952   10.9373336906932952    0.0000000000000000
 128
Direct
  0.9986882688307724  0.0096034609076512  0.0047639596306412
  0.2744717950319130  0.9912208930075372  0.9886391271427085
  0.4960343298525521  0.0098741111782579  0.9871741819413256
  0.7642184686338067  0.9936692894329205  0.9950472218103243
  0.9780275390452773  0.2632842312082745  0.9977231720384087
  0.2505613387945838  0.2504263807476786  0.0004780980602101
  0.4946790270260796  0.2460429418624728  0.0080750141513225
  0.7427041664843150  0.2544247903025566  0.0048276773277019
  0.0212198339268431  0.4915196628561109  0.9942202491363910
  0.2579785538396921  0.4923912867031729  0.0013125657286955
  0.5029880492768349  0.5045055914446744  0.9909554662069008
  0.7545794353385862  0.5103028076866851  0.9957599040212374
  0.0165706490036079  0.7516566854819515  0.9948087296462813
  0.2614857717022875  0.7452207803327192  0.0034182002831928
  0.4975078003030035  0.7608096625993770  0.9992948727720357
  0.7551472421101671  0.7484773798585966  0.9936155731127763
  0.9889421166424756  0.9975729873347124  0.2550641207330958
  0.2416223689981555  0.0008170545413088  0.2514612828099581
  0.5038962332924271  0.9938586208298789  0.2476918378649632
  0.7489589781164223  0.9921419492159109  0.2586584634079538
  0.0010193359033568  0.2604033460366050  0.2370807431818724
  0.2417916881407680  0.2567650955490374  0.2577930496548981
  0.4969654153663663  0.2612971663496538  0.2509380159865164
  0.7444387311665397  0.2510096469484873  0.2448666394904845
  0.9998971571380580  0.5140628272054925  0.2486095272548641
  0.2540446404130813  0.4920246410389819  0.2481032426817555
  0.4983779611749178  0.5132256977997824  0.2454936950655460
  0.7538640491280090  0.4937840442369056  0.2460272117439529
  0.9941279715141194  0.7665770760586422  0.2398002468814863
  0.2513790987584659  0.7497476773434790  0.2555759753465149
  0.4921254982867155  0.7573305678286302  0.2539105381800894
  0.7437208531670888  0.7418777898110502  0.2575823932747616
  0.0061298226041448  0.0078384315809986  0.4916854099506269
  0.2468582755905711  0.9977331560987196  0.4994021673543532
  0.5109404078968111  0.9960195145728131  0.5040610471240023
  0.7466073028017841  0.9997311190440173  0.4923809512154735
  0.9962823326639808  0.2525912576757010  0.5103901804769668
  0.2523208163389972  0.2529626101964133  0.4980573733949854
  0.5048878980340605  0.2577132489668022  0.4980582793797516
  0.7505599125327175  0.2510627015939291  0.5066510393416126
  0.9935230515697070  0.4926048334584371  0.5168367110230845
  0.2418347945294134  0.4999887364707469  0.5005154814258319
  0.4908582919213274  0.5080718813899898  0.5032964807714759
  0.7425878449015779  0.5020312903364966  0.5026981955096644
  0.0044902054858331  0.7558524109320693  0.4922966799466184
  0.2337265486827854  0.7514770803250951  0.5107478428608513
  0.4931468257223403  0.7563105145290000  0.4971860465704458
  0.7501978087991370  0.7501753597766669  0.5020671791884715
  0.9929586871495454  0.0118886621198655  0.7446640775511338
  0.2422505779097533  0.0073916885867232  0.7436693948255295
  0.5041390927648591  0.0061358965130778  0.7489096267371067
  0.7392748553174738  0.9922266832494890  0.7617085243522996
  0.9934611423904868  0.2539516686577696  0.7490991049849780
  0.2493958772036488  0.2481731641329462  0.7631578357359123
  0.5049585963011460  0.2377126322470860  0.7440391564125440
  0.7516899602661117  0.2377648967039175  0.7544951045688547
  0.9999222328182418  0.5005039156385230  0.7426886636140428
  0.2522956069574183  0.5071174597325111  0.7478387347380075
  0.4919989797308412  0.5060155004809888  0.7324842262944317
  0.7515517218705747  0.5085386873238990  0.7363840684205321
  0.9997536953939367  0.7555835599435177  0.7468236760139516
  0.2605391495394656  0.7495659029423878  0.7553330824586270
  0.5008033854742668  0.7630570208909915  0.7456025782002372
  0.7533344850407602  0.7409846044022935  0.7689765181474324
  0.0635918781765435  0.0604788414201415  0.0785294924801803
  0.3155534690644747  0.0593661136327695  0.0630242370937794
  0.5636973905137603  0.0713481115402051  0.0608555190380017
  0.8138590130166344  0.0579441735107270  0.0586790695116811
  0.0720215387698632  0.3055079071103385  0.0622800173753139
  0.3058548436343036  0.3098921725947884  0.0683487082072138
  0.5573182477405314  0.3238392057284577  0.0593192239391518
  0.8101608050862101  0.3170939252926384  0.0628347456521383
  0.0641764325069113  0.5620485062871065  0.0639569166977671
  0.3078098762410588  0.5614153909083327  0.0672424887262166
  0.5532145195239225  0.5658404061034413  0.0607103768770878
  0.8140387433359445  0.5727488053041148  0.0499477277542584
  0.0631817231075595  0.8106432650990812  0.0634450375751276
  0.3207996398782372  0.8037287932683623  0.0688398313979773
  0.5712800400693308  0.8161672737855874  0.0524760896458580
  0.8250864930681349  0.8150090825483669  0.0568194900229052
  0.0504357445875278  0.0743167461904140  0.3124743370976760
  0.3075565422283021  0.0612551453665167  0.3124061243529840
  0.5529969292704224  0.0690827977423597  0.3057949369267288
  0.8139673251273405  0.0695075542932018  0.3080186914624105
  0.0667056223871097  0.3152163242759934  0.3056596606041254
  0.3152692951031226  0.3100641788336150  0.3105007562781395
  0.5477479540663819  0.3154334578530751  0.3273511312676053
  0.8130342186988162  0.3112042140549538  0.3159521339763536
  0.0846384128846445  0.5656339130006671  0.2909817155934429
  0.3136900099835978  0.5634942435211959  0.3120744960401478
  0.5541223420861285  0.5742166521450863  0.3067839912287010
  0.8136803123443277  0.5538285228589043  0.3107405187812346
  0.0726627251728082  0.8161456075221135  0.3045780559079841
  0.3171126340296808  0.8113216753107357  0.3114693585396297
  0.5611932502941199  0.8044900514593646  0.3182775091690017
  0.8110316705406946  0.8137855756203857  0.3195562063436558
  0.0710210010779139  0.0483177385593436  0.5674609032460575
  0.3243446644168838  0.0484141994324673  0.5687251160276884
  0.5700775113860559  0.0564308041253751  0.5532373541702161
  0.8029144151032771  0.0666121015663341  0.5540902972142112
  0.0586979275805794  0.3173237588509268  0.5624305933834985
  0.3264936230247996  0.3053746020140765  0.5587532708444263
  0.5512822467217494  0.3139630256124701  0.5739093620248631
  0.8107986757301590  0.2983819527936145  0.5768616948982719
  0.0642940848222315  0.5685444520088664  0.5513829835356693
  0.3119540502470509  0.5674306967992196  0.5637722063853288
  0.5659504953714053  0.5575270596076829  0.5594031635774266
  0.8144729326519147  0.5598134029603464  0.5582996443482670
  0.0538106648943937  0.8066674342760188  0.5697964211976225
  0.3107123686043533  0.8034169822366840  0.5717931159164591
  0.5705473147534508  0.8095959746294664  0.5699131783386204
  0.8068338812494245  0.8167076294296495  0.5569398680505725
  0.0677410838165679  0.0547516846987372  0.8074139447947676
  0.3054961801888874  0.0682440602879111  0.8119831348850940
  0.5605395302475812  0.0616870971026621  0.8089224850080121
  0.8098251474176678  0.0598752982888777  0.8203722175455608
  0.0481167617594722  0.3128734268915286  0.8251789172442121
  0.3140167846434281  0.3062952935047319  0.8175983206772617
  0.5660963408512543  0.3145290135075269  0.8055203360455858
  0.8094367703538461  0.3145442524980480  0.8146067883133773
  0.0610619598991151  0.5708733684407793  0.8086005403588262
  0.3137981176326389  0.5634392489312010  0.8086348516099950
  0.5662279373844461  0.5569654398475078  0.8157759092687090
  0.8165450476108521  0.5714542815644583  0.8051508970134318
  0.0708452316463807  0.8160653466507274  0.8090773598235044
  0.3131210577780615  0.8120456773515888  0.8158778870254618
  0.5693603397017379  0.7994999562568436  0.8185056494573313
  0.8142432824240884  0.8197659922789621  0.8190247866955642
