kk                                      
   1.00000000000000     
     0.0000000000000000   10.9373336906932952   10.9373336906932952
    10.9373336906932952    0.0000000000000000   10.9373336906932952
    10.9373336906932952   10.9373336906932952    0.0000000000000000
   Si
   128
Direct
  0.9948217414313874  0.9963338337489844  0.9922873122447200
  0.2542393227294610  0.9973817766744304  0.9963895426217348
  0.5006274147577230  0.0044379438374094  0.9978320710597828
  0.7623736060925452  0.0027853947887806  0.9916696469000499
  0.0071360006204770  0.2493099243169397  0.9885884430851917
  0.2429787990717500  0.2576962124992264  0.9933674700909094
  0.4953709203278223  0.2571968865690906  0.9962829525661263
  0.7501647490839645  0.2470454117790482  0.0025934293710677
  0.9940682390756592  0.4976944130509651  0.0072556052313146
  0.2528499145314811  0.5075976198293048  0.9937154847653460
  0.5002832712117211  0.5011815308116923  0.9966993873954024
  0.7598441909531033  0.5062995110712762  0.9917167022713969
  0.0057416239085271  0.7465969683623257  0.9914352045550032
  0.2441389469004918  0.7609231978746536  0.9950090460911909
  0.4968334339873977  0.7448348495102479  0.9926699788736144
  0.7495191681021396  0.7537960388774891  0.0009902343547594
  0.0090207918147769  0.9875982296977384  0.2533765526136023
  0.2464797050876726  0.9982773437438652  0.2546435703989616
  0.5040076390737269  0.9941559180811907  0.2421751559733138
  0.7417939090333263  0.0099452695979068  0.2504763976314450
  0.0015005684425660  0.2444529866654364  0.2433114415540345
  0.2484281847799181  0.2386049295549810  0.2614135290924580
  0.5040578261756679  0.2462185566948776  0.2425200370412099
  0.7509860132583057  0.2316263192455850  0.2613914960223980
  0.9981548246152698  0.4994608340077988  0.2431804304564338
  0.2493277614317222  0.4972410995400409  0.2361891703227386
  0.4952351001810626  0.4989704127524917  0.2488376470401832
  0.7539341867044698  0.4926678817464563  0.2441733385913878
  0.9957422517799586  0.7563598050135667  0.2491047632683774
  0.2569150665927538  0.7420347745440878  0.2516428273417830
  0.5009851678125727  0.7467034852835397  0.2583156646218967
  0.7524841479480457  0.7335360339305979  0.2561977209233106
  0.9869112132766418  0.0065830153004924  0.5027436541028365
  0.2424353219289443  0.9966019814311764  0.5082937107965080
  0.4958441274990761  0.9990892931399884  0.5077600049747133
  0.7364169268610894  0.0138525348755394  0.5020751014281899
  0.9997471783323775  0.2489252955829215  0.4938548022856466
  0.2403289084322324  0.2557288099671453  0.4983055238839071
  0.4948102006149995  0.2597182274815211  0.4934040152490340
  0.7469260718225357  0.2643673861627462  0.4934664044733310
  0.0031907499830908  0.4962712153761828  0.5015520211179378
  0.2517907363327794  0.4972431570937417  0.5067735965630433
  0.5000301458619063  0.5053599174922141  0.4871617490645548
  0.7503390598245190  0.4963542279257425  0.5026676646414998
  0.0052145834286392  0.7441212339318213  0.4977774375667749
  0.2419749162391724  0.7501004113570175  0.4993240273546178
  0.4982854017302003  0.7522525852685789  0.4935008575565050
  0.7464709389407744  0.7476367554432954  0.5028249260641928
  0.0032301456046184  0.9928467013216604  0.7559365524009820
  0.2409038030765984  0.9921408662875493  0.7590580411645433
  0.5023432463475146  0.0100187809396459  0.7498008224935262
  0.7523780550598929  0.0121379009206635  0.7404806456290345
  0.9915432768335108  0.2476738083635013  0.7657561004488826
  0.2538969497982535  0.2433290004968427  0.7505300151586383
  0.5023393630186987  0.2502763836893749  0.7446933675693614
  0.7624458634547580  0.2458596275330933  0.7440094084907258
  0.0037710876682908  0.4968579963175870  0.7588485915588805
  0.2453283878769241  0.5069851694387495  0.7507987738527646
  0.5071937122542636  0.5002990567621239  0.7425453805925954
  0.7418589965401097  0.4948014708667188  0.7566844019850691
  0.9940788985032825  0.7523638012138321  0.7418413809376858
  0.2562817813121185  0.7525566515484314  0.7465502929748169
  0.4975377413962008  0.7484213131402271  0.7517597941298391
  0.7513322512812906  0.7494882658908821  0.7441812771454153
  0.0681398303564222  0.0677616876407399  0.0581339390348390
  0.3219595363367844  0.0689946503176202  0.0487517364629255
  0.5628710381954676  0.0623278037125274  0.0645914314899372
  0.8243322034996297  0.0496273088634638  0.0607896840626196
  0.0614129480173702  0.3185097127933361  0.0673219355174552
  0.3077849474367014  0.3152065598051834  0.0607487783288647
  0.5584608158715056  0.3209404105772933  0.0483634960346748
  0.8088395641531676  0.3198373248599182  0.0651545603762784
  0.0584398682656797  0.5636968059558782  0.0532078221726948
  0.3245994435426525  0.5552287410374674  0.0673301612644579
  0.5679551895312187  0.5715537207683070  0.0560522472600908
  0.8139978464949209  0.5526130881013955  0.0651225249147984
  0.0540914206502947  0.8138099039223832  0.0700644262737669
  0.3177518026189787  0.8094446513499634  0.0719819702099898
  0.5522788494089710  0.8232769623308798  0.0624165652848347
  0.8004905148646486  0.8219274542398622  0.0604101426338701
  0.0686006617012751  0.0607315553766554  0.3051876053562737
  0.3242306798290855  0.0536429660183870  0.3023352208255474
  0.5635557228623682  0.0624854599127787  0.3237500768914714
  0.8126704372740789  0.0567005920449120  0.3129027457727815
  0.0751738014230838  0.3232058806477909  0.2980235163050651
  0.3134454931510220  0.2949248070448505  0.3217023320833334
  0.5665296337452475  0.3097312058309285  0.3080842078670116
  0.8049845329473726  0.3183111065802677  0.3210792917575773
  0.0555261948519288  0.5613031539585407  0.3092166415235340
  0.3107485765887290  0.5632372282475941  0.2889440525350651
  0.5823504789684932  0.5415611255740060  0.3117706821394179
  0.8053091553992004  0.5521403128977340  0.3206091885062889
  0.0529929541148562  0.8158290899052503  0.3143826649176731
  0.3212279718788622  0.8116886413021263  0.3072269600131960
  0.5561859388412529  0.8126268423198155  0.3183238932339663
  0.7986567121424741  0.8100994914122879  0.3172045271020707
  0.0592524462688147  0.0703928827747049  0.5650641635572313
  0.3145180227162285  0.0623861190208146  0.5679722730986967
  0.5586606175566402  0.0626680442865180  0.5631679416595503
  0.8123353703339404  0.0586693210171276  0.5615975451288335
  0.0660451365629697  0.3009916658389855  0.5638769324203352
  0.3133975028773648  0.3132976983917786  0.5663745408156444
  0.5636966669291894  0.3052109207321152  0.5580025730428062
  0.8109352228608628  0.3052857188511879  0.5650135582598281
  0.0653912041223421  0.5608460404686397  0.5640082315567696
  0.3200286956267107  0.5695368015750404  0.5568027916383329
  0.5604209422715627  0.5657077982377103  0.5539324590195207
  0.8232277036516464  0.5466519251252535  0.5735502399849679
  0.0576462554091108  0.8168788036292653  0.5626894007351027
  0.3155490045297924  0.8027149905427038  0.5586041421989307
  0.5555688684544648  0.8027975408552450  0.5669936805815965
  0.8169676379286059  0.8054617046606793  0.5692688012599305
  0.0705891861784025  0.0573472375708874  0.8099024358298408
  0.3160040471727683  0.0573126461379800  0.8111202339561174
  0.5674431030194000  0.0478909140858548  0.8203055820835488
  0.8008649048880798  0.0659997433428856  0.8172137986569652
  0.0526221095017760  0.3240154884798798  0.8178361661314568
  0.3119161596124798  0.3201393522164722  0.8179641073342481
  0.5618953293957745  0.3200153676100044  0.8168727049366282
  0.8108452475921553  0.3228614855611553  0.8066344324851116
  0.0659806168448540  0.5596054474459393  0.8188361429099658
  0.3166921595190502  0.5615188741285237  0.8076477604577548
  0.5583604975006935  0.5599327860877992  0.8171759281991129
  0.8065557023957055  0.5617057225070639  0.8122344311294398
  0.0618399423270901  0.8084432288283168  0.8174452824691230
  0.3082752059956846  0.8165715587277589  0.8096276116943812
  0.5680115695309667  0.8128176537511820  0.8043202579641999
  0.8176747528666013  0.8093753033297659  0.8159864139491049
 
  0.00000000E+00  0.00000000E+00  0.00000000E+00
  0.00000000E+00  0.00000000E+00  0.00000000E+00
  0.00000000E+00  0.00000000E+00  0.00000000E+00
  0.00000000E+00  0.00000000E+00  0.00000000E+00
  0.00000000E+00  0.00000000E+00  0.00000000E+00
  0.00000000E+00  0.00000000E+00  0.00000000E+00
  0.00000000E+00  0.00000000E+00  0.00000000E+00
  0.00000000E+00  0.00000000E+00  0.00000000E+00
  0.00000000E+00  0.00000000E+00  0.00000000E+00
  0.00000000E+00  0.00000000E+00  0.00000000E+00
  0.00000000E+00  0.00000000E+00  0.00000000E+00
  0.00000000E+00  0.00000000E+00  0.00000000E+00
  0.00000000E+00  0.00000000E+00  0.00000000E+00
  0.00000000E+00  0.00000000E+00  0.00000000E+00
  0.00000000E+00  0.00000000E+00  0.00000000E+00
  0.00000000E+00  0.00000000E+00  0.00000000E+00
  0.00000000E+00  0.00000000E+00  0.00000000E+00
  0.00000000E+00  0.00000000E+00  0.00000000E+00
  0.00000000E+00  0.00000000E+00  0.00000000E+00
  0.00000000E+00  0.00000000E+00  0.00000000E+00
  0.00000000E+00  0.00000000E+00  0.00000000E+00
  0.00000000E+00  0.00000000E+00  0.00000000E+00
  0.00000000E+00  0.00000000E+00  0.00000000E+00
  0.00000000E+00  0.00000000E+00  0.00000000E+00
  0.00000000E+00  0.00000000E+00  0.00000000E+00
  0.00000000E+00  0.00000000E+00  0.00000000E+00
  0.00000000E+00  0.00000000E+00  0.00000000E+00
  0.00000000E+00  0.00000000E+00  0.00000000E+00
  0.00000000E+00  0.00000000E+00  0.00000000E+00
  0.00000000E+00  0.00000000E+00  0.00000000E+00
  0.00000000E+00  0.00000000E+00  0.00000000E+00
  0.00000000E+00  0.00000000E+00  0.00000000E+00
  0.00000000E+00  0.00000000E+00  0.00000000E+00
  0.00000000E+00  0.00000000E+00  0.00000000E+00
  0.00000000E+00  0.00000000E+00  0.00000000E+00
  0.00000000E+00  0.00000000E+00  0.00000000E+00
  0.00000000E+00  0.00000000E+00  0.00000000E+00
  0.00000000E+00  0.00000000E+00  0.00000000E+00
  0.00000000E+00  0.00000000E+00  0.00000000E+00
  0.00000000E+00  0.00000000E+00  0.00000000E+00
  0.00000000E+00  0.00000000E+00  0.00000000E+00
  0.00000000E+00  0.00000000E+00  0.00000000E+00
  0.00000000E+00  0.00000000E+00  0.00000000E+00
  0.00000000E+00  0.00000000E+00  0.00000000E+00
  0.00000000E+00  0.00000000E+00  0.00000000E+00
  0.00000000E+00  0.00000000E+00  0.00000000E+00
  0.00000000E+00  0.00000000E+00  0.00000000E+00
  0.00000000E+00  0.00000000E+00  0.00000000E+00
  0.00000000E+00  0.00000000E+00  0.00000000E+00
  0.00000000E+00  0.00000000E+00  0.00000000E+00
  0.00000000E+00  0.00000000E+00  0.00000000E+00
  0.00000000E+00  0.00000000E+00  0.00000000E+00
  0.00000000E+00  0.00000000E+00  0.00000000E+00
  0.00000000E+00  0.00000000E+00  0.00000000E+00
  0.00000000E+00  0.00000000E+00  0.00000000E+00
  0.00000000E+00  0.00000000E+00  0.00000000E+00
  0.00000000E+00  0.00000000E+00  0.00000000E+00
  0.00000000E+00  0.00000000E+00  0.00000000E+00
  0.00000000E+00  0.00000000E+00  0.00000000E+00
  0.00000000E+00  0.00000000E+00  0.00000000E+00
  0.00000000E+00  0.00000000E+00  0.00000000E+00
  0.00000000E+00  0.00000000E+00  0.00000000E+00
  0.00000000E+00  0.00000000E+00  0.00000000E+00
  0.00000000E+00  0.00000000E+00  0.00000000E+00
  0.00000000E+00  0.00000000E+00  0.00000000E+00
  0.00000000E+00  0.00000000E+00  0.00000000E+00
  0.00000000E+00  0.00000000E+00  0.00000000E+00
  0.00000000E+00  0.00000000E+00  0.00000000E+00
  0.00000000E+00  0.00000000E+00  0.00000000E+00
  0.00000000E+00  0.00000000E+00  0.00000000E+00
  0.00000000E+00  0.00000000E+00  0.00000000E+00
  0.00000000E+00  0.00000000E+00  0.00000000E+00
  0.00000000E+00  0.00000000E+00  0.00000000E+00
  0.00000000E+00  0.00000000E+00  0.00000000E+00
  0.00000000E+00  0.00000000E+00  0.00000000E+00
  0.00000000E+00  0.00000000E+00  0.00000000E+00
  0.00000000E+00  0.00000000E+00  0.00000000E+00
  0.00000000E+00  0.00000000E+00  0.00000000E+00
  0.00000000E+00  0.00000000E+00  0.00000000E+00
  0.00000000E+00  0.00000000E+00  0.00000000E+00
  0.00000000E+00  0.00000000E+00  0.00000000E+00
  0.00000000E+00  0.00000000E+00  0.00000000E+00
  0.00000000E+00  0.00000000E+00  0.00000000E+00
  0.00000000E+00  0.00000000E+00  0.00000000E+00
  0.00000000E+00  0.00000000E+00  0.00000000E+00
  0.00000000E+00  0.00000000E+00  0.00000000E+00
  0.00000000E+00  0.00000000E+00  0.00000000E+00
  0.00000000E+00  0.00000000E+00  0.00000000E+00
  0.00000000E+00  0.00000000E+00  0.00000000E+00
  0.00000000E+00  0.00000000E+00  0.00000000E+00
  0.00000000E+00  0.00000000E+00  0.00000000E+00
  0.00000000E+00  0.00000000E+00  0.00000000E+00
  0.00000000E+00  0.00000000E+00  0.00000000E+00
  0.00000000E+00  0.00000000E+00  0.00000000E+00
  0.00000000E+00  0.00000000E+00  0.00000000E+00
  0.00000000E+00  0.00000000E+00  0.00000000E+00
  0.00000000E+00  0.00000000E+00  0.00000000E+00
  0.00000000E+00  0.00000000E+00  0.00000000E+00
  0.00000000E+00  0.00000000E+00  0.00000000E+00
  0.00000000E+00  0.00000000E+00  0.00000000E+00
  0.00000000E+00  0.00000000E+00  0.00000000E+00
  0.00000000E+00  0.00000000E+00  0.00000000E+00
  0.00000000E+00  0.00000000E+00  0.00000000E+00
  0.00000000E+00  0.00000000E+00  0.00000000E+00
  0.00000000E+00  0.00000000E+00  0.00000000E+00
  0.00000000E+00  0.00000000E+00  0.00000000E+00
  0.00000000E+00  0.00000000E+00  0.00000000E+00
  0.00000000E+00  0.00000000E+00  0.00000000E+00
  0.00000000E+00  0.00000000E+00  0.00000000E+00
  0.00000000E+00  0.00000000E+00  0.00000000E+00
  0.00000000E+00  0.00000000E+00  0.00000000E+00
  0.00000000E+00  0.00000000E+00  0.00000000E+00
  0.00000000E+00  0.00000000E+00  0.00000000E+00
  0.00000000E+00  0.00000000E+00  0.00000000E+00
  0.00000000E+00  0.00000000E+00  0.00000000E+00
  0.00000000E+00  0.00000000E+00  0.00000000E+00
  0.00000000E+00  0.00000000E+00  0.00000000E+00
  0.00000000E+00  0.00000000E+00  0.00000000E+00
  0.00000000E+00  0.00000000E+00  0.00000000E+00
  0.00000000E+00  0.00000000E+00  0.00000000E+00
  0.00000000E+00  0.00000000E+00  0.00000000E+00
  0.00000000E+00  0.00000000E+00  0.00000000E+00
  0.00000000E+00  0.00000000E+00  0.00000000E+00
  0.00000000E+00  0.00000000E+00  0.00000000E+00
  0.00000000E+00  0.00000000E+00  0.00000000E+00
  0.00000000E+00  0.00000000E+00  0.00000000E+00
  0.00000000E+00  0.00000000E+00  0.00000000E+00
  0.00000000E+00  0.00000000E+00  0.00000000E+00
