kk
 1.0000000000000000
     0.0000000000000000   10.9373336906932952   10.9373336906932952
    10.9373336906932952    0.0000000000000000   10.9373336906932952
    10.9373336906932952   10.9373336906932952    0.0000000000000000
 128
Direct
  0.9948217414313855  0.9963338337489823  0.9922873122447183
  0.2542393227294601  0.9973817766744276  0.9963895426217336
  0.5006274147577247  0.0044379438374093  0.9978320710597800
  0.7623736060925469  0.0027853947887821  0.9916696469000502
  0.0071360006204799  0.2493099243169421  0.9885884430851909
  0.2429787990717480  0.2576962124992275  0.9933674700909118
  0.4953709203278209  0.2571968865690925  0.9962829525661284
  0.7501647490839656  0.2470454117790479  0.0025934293710654
  0.9940682390756600  0.4976944130509657  0.0072556052313150
  0.2528499145314786  0.5075976198293050  0.9937154847653472
  0.5002832712117221  0.5011815308116934  0.9966993873954029
  0.7598441909531051  0.5062995110712780  0.9917167022713954
  0.0057416239085303  0.7465969683623238  0.9914352045550034
  0.2441389469004886  0.7609231978746523  0.9950090460911916
  0.4968334339873973  0.7448348495102510  0.9926699788736174
  0.7495191681021400  0.7537960388774890  0.0009902343547608
  0.0090207918147735  0.9875982296977387  0.2533765526136028
  0.2464797050876708  0.9982773437438687  0.2546435703989627
  0.5040076390737277  0.9941559180811876  0.2421751559733172
  0.7417939090333279  0.0099452695979071  0.2504763976314418
  0.0015005684425674  0.2444529866654330  0.2433114415540323
  0.2484281847799207  0.2386049295549828  0.2614135290924557
  0.5040578261756656  0.2462185566948786  0.2425200370412066
  0.7509860132583052  0.2316263192455820  0.2613914960223998
  0.9981548246152678  0.4994608340078009  0.2431804304564345
  0.2493277614317203  0.4972410995400374  0.2361891703227360
  0.4952351001810661  0.4989704127524938  0.2488376470401821
  0.7539341867044664  0.4926678817464592  0.2441733385913878
  0.9957422517799603  0.7563598050135651  0.2491047632683757
  0.2569150665927563  0.7420347745440847  0.2516428273417848
  0.5009851678125706  0.7467034852835405  0.2583156646218943
  0.7524841479480459  0.7335360339305970  0.2561977209233079
  0.9869112132766418  0.0065830153004956  0.5027436541028344
  0.2424353219289433  0.9966019814311786  0.5082937107965059
  0.4958441274990769  0.9990892931399916  0.5077600049747141
  0.7364169268610894  0.0138525348755398  0.5020751014281907
  0.9997471783323748  0.2489252955829231  0.4938548022856501
  0.2403289084322314  0.2557288099671448  0.4983055238839103
  0.4948102006149980  0.2597182274815237  0.4934040152490312
  0.7469260718225342  0.2643673861627436  0.4934664044733308
  0.0031907499830877  0.4962712153761859  0.5015520211179385
  0.2517907363327800  0.4972431570937407  0.5067735965630428
  0.5000301458619096  0.5053599174922162  0.4871617490645562
  0.7503390598245191  0.4963542279257440  0.5026676646415033
  0.0052145834286394  0.7441212339318225  0.4977774375667727
  0.2419749162391755  0.7501004113570179  0.4993240273546204
  0.4982854017301989  0.7522525852685813  0.4935008575565032
  0.7464709389407765  0.7476367554432950  0.5028249260641903
  0.0032301456046199  0.9928467013216613  0.7559365524009833
  0.2409038030766014  0.9921408662875494  0.7590580411645453
  0.5023432463475114  0.0100187809396482  0.7498008224935265
  0.7523780550598960  0.0121379009206632  0.7404806456290360
  0.9915432768335128  0.2476738083635040  0.7657561004488855
  0.2538969497982562  0.2433290004968439  0.7505300151586384
  0.5023393630187000  0.2502763836893758  0.7446933675693617
  0.7624458634547596  0.2458596275330951  0.7440094084907227
  0.0037710876682930  0.4968579963175888  0.7588485915588824
  0.2453283878769264  0.5069851694387496  0.7507987738527631
  0.5071937122542619  0.5002990567621237  0.7425453805925946
  0.7418589965401098  0.4948014708667220  0.7566844019850708
  0.9940788985032828  0.7523638012138348  0.7418413809376828
  0.2562817813121154  0.7525566515484319  0.7465502929748170
  0.4975377413962006  0.7484213131402289  0.7517597941298362
  0.7513322512812872  0.7494882658908791  0.7441812771454160
  0.0681398303564193  0.0677616876407420  0.0581339390348358
  0.3219595363367821  0.0689946503176230  0.0487517364629290
  0.5628710381954708  0.0623278037125270  0.0645914314899342
  0.8243322034996282  0.0496273088634644  0.0607896840626178
  0.0614129480173712  0.3185097127933347  0.0673219355174579
  0.3077849474366985  0.3152065598051826  0.0607487783288653
  0.5584608158715042  0.3209404105772906  0.0483634960346728
  0.8088395641531693  0.3198373248599163  0.0651545603762755
  0.0584398682656797  0.5636968059558780  0.0532078221726928
  0.3245994435426490  0.5552287410374680  0.0673301612644567
  0.5679551895312173  0.5715537207683044  0.0560522472600874
  0.8139978464949201  0.5526130881013939  0.0651225249147989
  0.0540914206502961  0.8138099039223862  0.0700644262737646
  0.3177518026189813  0.8094446513499650  0.0719819702099870
  0.5522788494089718  0.8232769623308823  0.0624165652848347
  0.8004905148646484  0.8219274542398640  0.0604101426338735
  0.0686006617012731  0.0607315553766578  0.3051876053562714
  0.3242306798290862  0.0536429660183887  0.3023352208255482
  0.5635557228623649  0.0624854599127818  0.3237500768914690
  0.8126704372740816  0.0567005920449143  0.3129027457727803
  0.0751738014230837  0.3232058806477913  0.2980235163050666
  0.3134454931510220  0.2949248070448490  0.3217023320833324
  0.5665296337452473  0.3097312058309306  0.3080842078670147
  0.8049845329473703  0.3183111065802690  0.3210792917575780
  0.0555261948519307  0.5613031539585407  0.3092166415235357
  0.3107485765887325  0.5632372282475954  0.2889440525350677
  0.5823504789684899  0.5415611255740062  0.3117706821394162
  0.8053091553992008  0.5521403128977365  0.3206091885062889
  0.0529929541148547  0.8158290899052467  0.3143826649176762
  0.3212279718788594  0.8116886413021241  0.3072269600131973
  0.5561859388412522  0.8126268423198166  0.3183238932339688
  0.7986567121424751  0.8100994914122887  0.3172045271020709
  0.0592524462688147  0.0703928827747065  0.5650641635572329
  0.3145180227162312  0.0623861190208139  0.5679722730986969
  0.5586606175566434  0.0626680442865166  0.5631679416595490
  0.8123353703339374  0.0586693210171288  0.5615975451288363
  0.0660451365629705  0.3009916658389872  0.5638769324203319
  0.3133975028773637  0.3132976983917772  0.5663745408156428
  0.5636966669291926  0.3052109207321171  0.5580025730428039
  0.8109352228608647  0.3052857188511854  0.5650135582598305
  0.0653912041223387  0.5608460404686370  0.5640082315567702
  0.3200286956267139  0.5695368015750375  0.5568027916383336
  0.5604209422715646  0.5657077982377086  0.5539324590195204
  0.8232277036516484  0.5466519251252514  0.5735502399849678
  0.0576462554091078  0.8168788036292624  0.5626894007351040
  0.3155490045297955  0.8027149905427063  0.5586041421989340
  0.5555688684544648  0.8027975408552422  0.5669936805815996
  0.8169676379286041  0.8054617046606787  0.5692688012599314
  0.0705891861784018  0.0573472375708892  0.8099024358298383
  0.3160040471727710  0.0573126461379798  0.8111202339561163
  0.5674431030193992  0.0478909140858563  0.8203055820835465
  0.8008649048880799  0.0659997433428864  0.8172137986569686
  0.0526221095017742  0.3240154884798765  0.8178361661314564
  0.3119161596124806  0.3201393522164687  0.8179641073342491
  0.5618953293957710  0.3200153676100053  0.8168727049366314
  0.8108452475921551  0.3228614855611541  0.8066344324851150
  0.0659806168448570  0.5596054474459391  0.8188361429099658
  0.3166921595190481  0.5615188741285250  0.8076477604577520
  0.5583604975006928  0.5599327860877988  0.8171759281991096
  0.8065557023957064  0.5617057225070626  0.8122344311294407
  0.0618399423270920  0.8084432288283171  0.8174452824691251
  0.3082752059956828  0.8165715587277573  0.8096276116943829
  0.5680115695309647  0.8128176537511801  0.8043202579642020
  0.8176747528666007  0.8093753033297656  0.8159864139491017
