kk                                      
   1.00000000000000     
     0.0000000000000000   10.9373336906932952   10.9373336906932952
    10.9373336906932952    0.0000000000000000   10.9373336906932952
    10.9373336906932952   10.9373336906932952    0.0000000000000000
   Si
   128
Direct
  0.9951338654447284  0.0000724317845169  0.9995807307157136
  0.2507988972411468  0.9933731388377680  0.9864306927897601
  0.4970263291538544  0.0000695737575995  0.0093111274505731
  0.7595013022128896  0.9976908672676004  0.9976177417567555
  0.9950678346137707  0.2460304372130935  0.0082405008271422
  0.2527231425736360  0.2565052426829197  0.9920351736819200
  0.5063400414759371  0.2562794242596524  0.9954640341582532
  0.7462317630235589  0.2598207785375379  0.9851688610320721
  0.0034369671654488  0.5053373713629910  0.9933838647000073
  0.2426452668710439  0.4971962327321009  0.0032255405618784
  0.4949714399255782  0.5107882912853370  0.9871197843010222
  0.7421994348236893  0.4985942777068075  0.0047694691404203
  0.0039898231942033  0.7506635814719189  0.9906130847100982
  0.2465737224063389  0.7501289623528393  0.0040386035474071
  0.5095271510644821  0.7457923470914949  0.9966428399204901
  0.7406952915049061  0.7560265203779224  0.9973264959526560
  0.9997832681908534  0.9974621414971381  0.2412329950833509
  0.2654840572988775  0.0048416060418504  0.2344527994248722
  0.4985851921951294  0.0017541381832515  0.2514400443170217
  0.7518730126733359  0.0048789320998353  0.2390334020418692
  0.0005948394191080  0.2420139883191794  0.2465470745422422
  0.2487858281397664  0.2604253261469438  0.2540367349739796
  0.4899727309535749  0.2467523440011092  0.2657702976767524
  0.7520668700702942  0.2457982128939022  0.2544003801856149
  0.9994519144788541  0.5100607272860529  0.2479161078945680
  0.2501498776059421  0.5017491781118579  0.2609244004499658
  0.5129909878183199  0.4930201229373452  0.2429397813193006
  0.7581539214161666  0.5022692347191438  0.2357064895138237
  0.0063069786048970  0.7366100535517859  0.2567094540101209
  0.2527339237896413  0.7578290779830681  0.2515098344876350
  0.4986476312584927  0.7505078069365325  0.2487637251514485
  0.7501378520967279  0.7526774197877231  0.2479556187177607
  0.9996985829874134  0.0004868965338360  0.5093075054531582
  0.2573030837268746  0.9984042832101778  0.4884697447892208
  0.4967145364880778  0.9915503840546478  0.5141343853803235
  0.7536912584117061  0.0022293326965439  0.4866477672686784
  0.9973418665464280  0.2467953364621209  0.5036996185149221
  0.2477622802558912  0.2620664532584769  0.4993716796688048
  0.4981973403218589  0.2609530908386262  0.4892978652069431
  0.7496650358230923  0.2394603294093258  0.4993866134395546
  0.9901809017975012  0.5008399098712033  0.4933969951348232
  0.2494119156008026  0.5044612685600711  0.5007092891738623
  0.5151659978473120  0.5011865880516169  0.4906658853907189
  0.7458086999508780  0.5044819743329114  0.4946577910230090
  0.9863596209955290  0.7583431385415054  0.5010854232952084
  0.2513327209580254  0.7532537855591102  0.4942353695268054
  0.5109003439366617  0.7574446273160618  0.4889521701647510
  0.7598323969556162  0.7491711858121946  0.5038674219293284
  0.9944833285874495  0.0112458628827028  0.7520844588859674
  0.2373184976325717  0.0109113618942374  0.7521743193598383
  0.4837678208452942  0.0085770415357871  0.7577461360928766
  0.7387890882513872  0.0097208460391158  0.7464108552093336
  0.0062299154957017  0.2536070221760554  0.7379089992445742
  0.2464754475330153  0.2612340421620942  0.7519349437073970
  0.5038854415999410  0.2451207753668996  0.7433191639119414
  0.7482279042194975  0.2437771143163872  0.7571205946050767
  0.0016290413273694  0.5035438893290589  0.7507089358584764
  0.2564135679343806  0.4949237979042209  0.7468456901334832
  0.5153295554008679  0.4892540234644400  0.7454030237335303
  0.7523395724318362  0.4867163666498868  0.7512126746982233
  0.0178367585719954  0.7407733804012793  0.7468977440719797
  0.2515213683747177  0.7433743071613890  0.7516731690677361
  0.4970522150697718  0.7525038213361412  0.7532947442692617
  0.7475228554853857  0.7585486612763503  0.7466087367071239
  0.0729010056490296  0.0462006052518902  0.0649782657273619
  0.3195695137547006  0.0568673833120030  0.0569654934921218
  0.5706923908928090  0.0577316892259461  0.0612604225689211
  0.8187111868544932  0.0619125356630619  0.0564377255264432
  0.0668550272994679  0.3160387296871008  0.0591211901601127
  0.3041350912089698  0.3158770546826517  0.0593102925413618
  0.5623948869661604  0.3187940870499801  0.0599588654712946
  0.8117842877652564  0.3112342406481545  0.0539569573689676
  0.0588043885333178  0.5611037206924436  0.0699834448159820
  0.3110689637500244  0.5644573524989482  0.0593305893617568
  0.5649798682940030  0.5605779551066092  0.0614371894862629
  0.8117024281280507  0.5656071231581876  0.0558259156170138
  0.0638102100787208  0.8193718594846047  0.0668574803802215
  0.3166271352977148  0.8111781420845858  0.0593670939458804
  0.5654931089651072  0.8204034532664934  0.0499637126964245
  0.8107509202683474  0.8086523473541334  0.0680634298202847
  0.0569133665392059  0.0582316555308537  0.3156464332453481
  0.3034343529170656  0.0810719810537535  0.3033677517349105
  0.5571865707691828  0.0559751976238161  0.3227562933874921
  0.8102523555138532  0.0682473509089192  0.3020151952092149
  0.0697520180559721  0.3232033087243380  0.3006521983503418
  0.3209934758414477  0.3148543077610810  0.3129671249082122
  0.5692495756743270  0.3097364512124656  0.3110612913711321
  0.8029741723619992  0.3253882108350155  0.3091485970654375
  0.0649807913637588  0.5617503394937700  0.3193674508126563
  0.3137773631745091  0.5552040331102930  0.3174252491298475
  0.5665084047826454  0.5609211935167906  0.3009913493770426
  0.8104154253213167  0.5611660500828535  0.3106813905930963
  0.0570871384808882  0.8197364292392493  0.3141955038405868
  0.3203948623237096  0.8115635255114455  0.3100574831634830
  0.5557234601584824  0.8144701120484257  0.3107676698940764
  0.8256593045432723  0.8072408727484373  0.3065742983844117
  0.0584520009392264  0.0496516238551550  0.5775521677336357
  0.3204964945307935  0.0506132159035531  0.5580979997752280
  0.5749509671784239  0.0596186360070590  0.5525391218134175
  0.8060700204906439  0.0618351190907589  0.5690530946061472
  0.0551686958526076  0.3237193909038112  0.5616667454086439
  0.2995082014157120  0.3250425237018604  0.5679059023078992
  0.5731081354879208  0.3188749330050840  0.5481403949969419
  0.8071290973816616  0.3206463783708458  0.5606091073291353
  0.0786041394264103  0.5620319465007029  0.5491135255411308
  0.3162222685149771  0.5596281045218561  0.5607057864500860
  0.5569933400562377  0.5549717950714381  0.5749273290461971
  0.8155205549813971  0.5606563859936813  0.5609133548544918
  0.0619696910408862  0.8141427531523178  0.5589751668231600
  0.3107959850855480  0.8086756903224241  0.5649197863950732
  0.5691369513850546  0.8208806978519334  0.5529364119460212
  0.8119478563997120  0.8159145042047626  0.5671197095050715
  0.0577548785807096  0.0679525754865011  0.8103923827844213
  0.3137810495780258  0.0602798924059513  0.8098680092809261
  0.5510787567489146  0.0636034698617038  0.8226971938388843
  0.8201573931048927  0.0538140443727286  0.8088107644837450
  0.0745998430790422  0.3135150579269776  0.8155920963844565
  0.3163811282547258  0.3098138308173901  0.8088945337232758
  0.5610746583044914  0.3158942932490447  0.8104630008832032
  0.8181670430542596  0.3103904540749909  0.8100985896142063
  0.0744773134292771  0.5636980706272468  0.8207909245613152
  0.3063493427981783  0.5633955755636180  0.8176710525540685
  0.5661862373053808  0.5602376554598649  0.8110830598683307
  0.8132323869032732  0.5703373585902867  0.8102122276795996
  0.0514060212775647  0.8072505397018617  0.8169419972715630
  0.3109544550671899  0.8235273131857497  0.8113138760555856
  0.5498210849490945  0.8108283496853517  0.8187073807647707
  0.8253128961693292  0.8249136425660524  0.8037433897272308
 
  0.00000000E+00  0.00000000E+00  0.00000000E+00
  0.00000000E+00  0.00000000E+00  0.00000000E+00
  0.00000000E+00  0.00000000E+00  0.00000000E+00
  0.00000000E+00  0.00000000E+00  0.00000000E+00
  0.00000000E+00  0.00000000E+00  0.00000000E+00
  0.00000000E+00  0.00000000E+00  0.00000000E+00
  0.00000000E+00  0.00000000E+00  0.00000000E+00
  0.00000000E+00  0.00000000E+00  0.00000000E+00
  0.00000000E+00  0.00000000E+00  0.00000000E+00
  0.00000000E+00  0.00000000E+00  0.00000000E+00
  0.00000000E+00  0.00000000E+00  0.00000000E+00
  0.00000000E+00  0.00000000E+00  0.00000000E+00
  0.00000000E+00  0.00000000E+00  0.00000000E+00
  0.00000000E+00  0.00000000E+00  0.00000000E+00
  0.00000000E+00  0.00000000E+00  0.00000000E+00
  0.00000000E+00  0.00000000E+00  0.00000000E+00
  0.00000000E+00  0.00000000E+00  0.00000000E+00
  0.00000000E+00  0.00000000E+00  0.00000000E+00
  0.00000000E+00  0.00000000E+00  0.00000000E+00
  0.00000000E+00  0.00000000E+00  0.00000000E+00
  0.00000000E+00  0.00000000E+00  0.00000000E+00
  0.00000000E+00  0.00000000E+00  0.00000000E+00
  0.00000000E+00  0.00000000E+00  0.00000000E+00
  0.00000000E+00  0.00000000E+00  0.00000000E+00
  0.00000000E+00  0.00000000E+00  0.00000000E+00
  0.00000000E+00  0.00000000E+00  0.00000000E+00
  0.00000000E+00  0.00000000E+00  0.00000000E+00
  0.00000000E+00  0.00000000E+00  0.00000000E+00
  0.00000000E+00  0.00000000E+00  0.00000000E+00
  0.00000000E+00  0.00000000E+00  0.00000000E+00
  0.00000000E+00  0.00000000E+00  0.00000000E+00
  0.00000000E+00  0.00000000E+00  0.00000000E+00
  0.00000000E+00  0.00000000E+00  0.00000000E+00
  0.00000000E+00  0.00000000E+00  0.00000000E+00
  0.00000000E+00  0.00000000E+00  0.00000000E+00
  0.00000000E+00  0.00000000E+00  0.00000000E+00
  0.00000000E+00  0.00000000E+00  0.00000000E+00
  0.00000000E+00  0.00000000E+00  0.00000000E+00
  0.00000000E+00  0.00000000E+00  0.00000000E+00
  0.00000000E+00  0.00000000E+00  0.00000000E+00
  0.00000000E+00  0.00000000E+00  0.00000000E+00
  0.00000000E+00  0.00000000E+00  0.00000000E+00
  0.00000000E+00  0.00000000E+00  0.00000000E+00
  0.00000000E+00  0.00000000E+00  0.00000000E+00
  0.00000000E+00  0.00000000E+00  0.00000000E+00
  0.00000000E+00  0.00000000E+00  0.00000000E+00
  0.00000000E+00  0.00000000E+00  0.00000000E+00
  0.00000000E+00  0.00000000E+00  0.00000000E+00
  0.00000000E+00  0.00000000E+00  0.00000000E+00
  0.00000000E+00  0.00000000E+00  0.00000000E+00
  0.00000000E+00  0.00000000E+00  0.00000000E+00
  0.00000000E+00  0.00000000E+00  0.00000000E+00
  0.00000000E+00  0.00000000E+00  0.00000000E+00
  0.00000000E+00  0.00000000E+00  0.00000000E+00
  0.00000000E+00  0.00000000E+00  0.00000000E+00
  0.00000000E+00  0.00000000E+00  0.00000000E+00
  0.00000000E+00  0.00000000E+00  0.00000000E+00
  0.00000000E+00  0.00000000E+00  0.00000000E+00
  0.00000000E+00  0.00000000E+00  0.00000000E+00
  0.00000000E+00  0.00000000E+00  0.00000000E+00
  0.00000000E+00  0.00000000E+00  0.00000000E+00
  0.00000000E+00  0.00000000E+00  0.00000000E+00
  0.00000000E+00  0.00000000E+00  0.00000000E+00
  0.00000000E+00  0.00000000E+00  0.00000000E+00
  0.00000000E+00  0.00000000E+00  0.00000000E+00
  0.00000000E+00  0.00000000E+00  0.00000000E+00
  0.00000000E+00  0.00000000E+00  0.00000000E+00
  0.00000000E+00  0.00000000E+00  0.00000000E+00
  0.00000000E+00  0.00000000E+00  0.00000000E+00
  0.00000000E+00  0.00000000E+00  0.00000000E+00
  0.00000000E+00  0.00000000E+00  0.00000000E+00
  0.00000000E+00  0.00000000E+00  0.00000000E+00
  0.00000000E+00  0.00000000E+00  0.00000000E+00
  0.00000000E+00  0.00000000E+00  0.00000000E+00
  0.00000000E+00  0.00000000E+00  0.00000000E+00
  0.00000000E+00  0.00000000E+00  0.00000000E+00
  0.00000000E+00  0.00000000E+00  0.00000000E+00
  0.00000000E+00  0.00000000E+00  0.00000000E+00
  0.00000000E+00  0.00000000E+00  0.00000000E+00
  0.00000000E+00  0.00000000E+00  0.00000000E+00
  0.00000000E+00  0.00000000E+00  0.00000000E+00
  0.00000000E+00  0.00000000E+00  0.00000000E+00
  0.00000000E+00  0.00000000E+00  0.00000000E+00
  0.00000000E+00  0.00000000E+00  0.00000000E+00
  0.00000000E+00  0.00000000E+00  0.00000000E+00
  0.00000000E+00  0.00000000E+00  0.00000000E+00
  0.00000000E+00  0.00000000E+00  0.00000000E+00
  0.00000000E+00  0.00000000E+00  0.00000000E+00
  0.00000000E+00  0.00000000E+00  0.00000000E+00
  0.00000000E+00  0.00000000E+00  0.00000000E+00
  0.00000000E+00  0.00000000E+00  0.00000000E+00
  0.00000000E+00  0.00000000E+00  0.00000000E+00
  0.00000000E+00  0.00000000E+00  0.00000000E+00
  0.00000000E+00  0.00000000E+00  0.00000000E+00
  0.00000000E+00  0.00000000E+00  0.00000000E+00
  0.00000000E+00  0.00000000E+00  0.00000000E+00
  0.00000000E+00  0.00000000E+00  0.00000000E+00
  0.00000000E+00  0.00000000E+00  0.00000000E+00
  0.00000000E+00  0.00000000E+00  0.00000000E+00
  0.00000000E+00  0.00000000E+00  0.00000000E+00
  0.00000000E+00  0.00000000E+00  0.00000000E+00
  0.00000000E+00  0.00000000E+00  0.00000000E+00
  0.00000000E+00  0.00000000E+00  0.00000000E+00
  0.00000000E+00  0.00000000E+00  0.00000000E+00
  0.00000000E+00  0.00000000E+00  0.00000000E+00
  0.00000000E+00  0.00000000E+00  0.00000000E+00
  0.00000000E+00  0.00000000E+00  0.00000000E+00
  0.00000000E+00  0.00000000E+00  0.00000000E+00
  0.00000000E+00  0.00000000E+00  0.00000000E+00
  0.00000000E+00  0.00000000E+00  0.00000000E+00
  0.00000000E+00  0.00000000E+00  0.00000000E+00
  0.00000000E+00  0.00000000E+00  0.00000000E+00
  0.00000000E+00  0.00000000E+00  0.00000000E+00
  0.00000000E+00  0.00000000E+00  0.00000000E+00
  0.00000000E+00  0.00000000E+00  0.00000000E+00
  0.00000000E+00  0.00000000E+00  0.00000000E+00
  0.00000000E+00  0.00000000E+00  0.00000000E+00
  0.00000000E+00  0.00000000E+00  0.00000000E+00
  0.00000000E+00  0.00000000E+00  0.00000000E+00
  0.00000000E+00  0.00000000E+00  0.00000000E+00
  0.00000000E+00  0.00000000E+00  0.00000000E+00
  0.00000000E+00  0.00000000E+00  0.00000000E+00
  0.00000000E+00  0.00000000E+00  0.00000000E+00
  0.00000000E+00  0.00000000E+00  0.00000000E+00
  0.00000000E+00  0.00000000E+00  0.00000000E+00
  0.00000000E+00  0.00000000E+00  0.00000000E+00
  0.00000000E+00  0.00000000E+00  0.00000000E+00
  0.00000000E+00  0.00000000E+00  0.00000000E+00
