kk
 1.0000000000000000
     0.0000000000000000   10.9373336906932952   10.9373336906932952
    10.9373336906932952    0.0000000000000000   10.9373336906932952
    10.9373336906932952   10.9373336906932952    0.0000000000000000
 128
Direct
  0.9951338654447318  0.0000724317845181  0.9995807307157137
  0.2507988972411436  0.9933731388377698  0.9864306927897616
  0.4970263291538545  0.0000695737576010  0.0093111274505744
  0.7595013022128917  0.9976908672675980  0.9976177417567569
  0.9950678346137704  0.2460304372130962  0.0082405008271457
  0.2527231425736361  0.2565052426829203  0.9920351736819207
  0.5063400414759384  0.2562794242596502  0.9954640341582516
  0.7462317630235570  0.2598207785375374  0.9851688610320687
  0.0034369671654521  0.5053373713629901  0.9933838647000059
  0.2426452668710439  0.4971962327321013  0.0032255405618798
  0.4949714399255753  0.5107882912853344  0.9871197843010245
  0.7421994348236872  0.4985942777068079  0.0047694691404226
  0.0039898231942025  0.7506635814719177  0.9906130847100992
  0.2465737224063388  0.7501289623528365  0.0040386035474066
  0.5095271510644852  0.7457923470914979  0.9966428399204903
  0.7406952915049044  0.7560265203779202  0.9973264959526571
  0.9997832681908513  0.9974621414971409  0.2412329950833486
  0.2654840572988757  0.0048416060418509  0.2344527994248713
  0.4985851921951265  0.0017541381832498  0.2514400443170240
  0.7518730126733381  0.0048789320998348  0.2390334020418693
  0.0005948394191081  0.2420139883191799  0.2465470745422401
  0.2487858281397680  0.2604253261469451  0.2540367349739779
  0.4899727309535780  0.2467523440011126  0.2657702976767554
  0.7520668700702965  0.2457982128939052  0.2544003801856133
  0.9994519144788525  0.5100607272860526  0.2479161078945702
  0.2501498776059400  0.5017491781118556  0.2609244004499641
  0.5129909878183201  0.4930201229373422  0.2429397813193027
  0.7581539214161640  0.5022692347191428  0.2357064895138271
  0.0063069786048968  0.7366100535517853  0.2567094540101179
  0.2527339237896443  0.7578290779830682  0.2515098344876359
  0.4986476312584945  0.7505078069365346  0.2487637251514467
  0.7501378520967275  0.7526774197877257  0.2479556187177598
  0.9996985829874114  0.0004868965338390  0.5093075054531548
  0.2573030837268767  0.9984042832101810  0.4884697447892208
  0.4967145364880755  0.9915503840546451  0.5141343853803204
  0.7536912584117067  0.0022293326965438  0.4866477672686779
  0.9973418665464293  0.2467953364621215  0.5036996185149213
  0.2477622802558889  0.2620664532584793  0.4993716796688081
  0.4981973403218602  0.2609530908386279  0.4892978652069412
  0.7496650358230895  0.2394603294093257  0.4993866134395560
  0.9901809017975037  0.5008399098712040  0.4933969951348242
  0.2494119156007991  0.5044612685600680  0.5007092891738639
  0.5151659978473091  0.5011865880516168  0.4906658853907209
  0.7458086999508801  0.5044819743329100  0.4946577910230063
  0.9863596209955294  0.7583431385415064  0.5010854232952107
  0.2513327209580271  0.7532537855591074  0.4942353695268045
  0.5109003439366604  0.7574446273160601  0.4889521701647503
  0.7598323969556167  0.7491711858121913  0.5038674219293292
  0.9944833285874469  0.0112458628827047  0.7520844588859682
  0.2373184976325731  0.0109113618942340  0.7521743193598418
  0.4837678208452936  0.0085770415357853  0.7577461360928791
  0.7387890882513850  0.0097208460391139  0.7464108552093328
  0.0062299154956989  0.2536070221760559  0.7379089992445774
  0.2464754475330167  0.2612340421620912  0.7519349437073988
  0.5038854415999400  0.2451207753669021  0.7433191639119386
  0.7482279042194974  0.2437771143163846  0.7571205946050752
  0.0016290413273716  0.5035438893290620  0.7507089358584735
  0.2564135679343781  0.4949237979042228  0.7468456901334799
  0.5153295554008693  0.4892540234644374  0.7454030237335310
  0.7523395724318380  0.4867163666498858  0.7512126746982207
  0.0178367585719973  0.7407733804012796  0.7468977440719816
  0.2515213683747156  0.7433743071613875  0.7516731690677386
  0.4970522150697748  0.7525038213361397  0.7532947442692649
  0.7475228554853880  0.7585486612763520  0.7466087367071251
  0.0729010056490318  0.0462006052518883  0.0649782657273612
  0.3195695137547039  0.0568673833120007  0.0569654934921190
  0.5706923908928069  0.0577316892259449  0.0612604225689219
  0.8187111868544963  0.0619125356630651  0.0564377255264427
  0.0668550272994668  0.3160387296871009  0.0591211901601161
  0.3041350912089722  0.3158770546826539  0.0593102925413634
  0.5623948869661601  0.3187940870499808  0.0599588654712941
  0.8117842877652539  0.3112342406481548  0.0539569573689642
  0.0588043885333211  0.5611037206924414  0.0699834448159834
  0.3110689637500248  0.5644573524989498  0.0593305893617549
  0.5649798682940054  0.5605779551066085  0.0614371894862662
  0.8117024281280494  0.5656071231581865  0.0558259156170160
  0.0638102100787197  0.8193718594846046  0.0668574803802248
  0.3166271352977174  0.8111781420845834  0.0593670939458769
  0.5654931089651047  0.8204034532664926  0.0499637126964248
  0.8107509202683477  0.8086523473541355  0.0680634298202836
  0.0569133665392036  0.0582316555308536  0.3156464332453495
  0.3034343529170637  0.0810719810537550  0.3033677517349080
  0.5571865707691829  0.0559751976238129  0.3227562933874923
  0.8102523555138564  0.0682473509089178  0.3020151952092124
  0.0697520180559714  0.3232033087243376  0.3006521983503439
  0.3209934758414472  0.3148543077610827  0.3129671249082157
  0.5692495756743238  0.3097364512124653  0.3110612913711292
  0.8029741723619962  0.3253882108350144  0.3091485970654403
  0.0649807913637603  0.5617503394937697  0.3193674508126549
  0.3137773631745100  0.5552040331102901  0.3174252491298484
  0.5665084047826430  0.5609211935167936  0.3009913493770445
  0.8104154253213175  0.5611660500828529  0.3106813905930950
  0.0570871384808862  0.8197364292392501  0.3141955038405888
  0.3203948623237094  0.8115635255114451  0.3100574831634823
  0.5557234601584811  0.8144701120484276  0.3107676698940778
  0.8256593045432699  0.8072408727484344  0.3065742983844149
  0.0584520009392285  0.0496516238551542  0.5775521677336356
  0.3204964945307963  0.0506132159035557  0.5580979997752277
  0.5749509671784270  0.0596186360070581  0.5525391218134199
  0.8060700204906462  0.0618351190907558  0.5690530946061487
  0.0551686958526094  0.3237193909038079  0.5616667454086437
  0.2995082014157113  0.3250425237018637  0.5679059023078989
  0.5731081354879219  0.3188749330050816  0.5481403949969414
  0.8071290973816618  0.3206463783708464  0.5606091073291332
  0.0786041394264088  0.5620319465007038  0.5491135255411309
  0.3162222685149765  0.5596281045218527  0.5607057864500861
  0.5569933400562359  0.5549717950714390  0.5749273290461937
  0.8155205549813968  0.5606563859936841  0.5609133548544919
  0.0619696910408841  0.8141427531523144  0.5589751668231605
  0.3107959850855454  0.8086756903224246  0.5649197863950738
  0.5691369513850519  0.8208806978519351  0.5529364119460244
  0.8119478563997133  0.8159145042047644  0.5671197095050706
  0.0577548785807096  0.0679525754865005  0.8103923827844194
  0.3137810495780248  0.0602798924059519  0.8098680092809245
  0.5510787567489172  0.0636034698617020  0.8226971938388834
  0.8201573931048906  0.0538140443727279  0.8088107644837448
  0.0745998430790413  0.3135150579269753  0.8155920963844550
  0.3163811282547254  0.3098138308173873  0.8088945337232746
  0.5610746583044933  0.3158942932490477  0.8104630008832017
  0.8181670430542602  0.3103904540749890  0.8100985896142069
  0.0744773134292770  0.5636980706272489  0.8207909245613129
  0.3063493427981807  0.5633955755636181  0.8176710525540709
  0.5661862373053836  0.5602376554598683  0.8110830598683277
  0.8132323869032759  0.5703373585902842  0.8102122276796019
  0.0514060212775621  0.8072505397018602  0.8169419972715611
  0.3109544550671910  0.8235273131857480  0.8113138760555830
  0.5498210849490976  0.8108283496853532  0.8187073807647740
  0.8253128961693270  0.8249136425660528  0.8037433897272335
