kk                                      
   1.00000000000000     
     0.0000000000000000   10.9373336906932952   10.9373336906932952
    10.9373336906932952    0.0000000000000000   10.9373336906932952
    10.9373336906932952   10.9373336906932952    0.0000000000000000
   Si
   128
Direct
  0.0054922531773443  0.9993225627385129  0.9944229477608602
  0.2407543985040093  0.9948527329042349  0.0061337412607898
  0.4863002537233427  0.9957351326241906  0.0097349353815943
  0.7456197891714140  0.0084983180386118  0.9991563138880437
  0.0094298160531494  0.2404310895223674  0.9917936636449269
  0.2502318811716222  0.2457149034962995  0.0160619071198838
  0.5121282982603645  0.2613378130677262  0.9871146511233775
  0.7606576032973109  0.2475163907864939  0.9952769074409389
  0.0075352652085598  0.4960886277043102  0.9917416471364149
  0.2443880604452957  0.5038471610628505  0.9999288292798028
  0.4972026634712705  0.5031931950574844  0.9942878672258786
  0.7662748189367221  0.4898684266012268  0.9991839679195635
  0.0002142887747922  0.7561135652600441  0.0065482793401515
  0.2510985841578872  0.7428085302122369  0.0042422632527774
  0.5034851887159491  0.7397341190079061  0.9914591565967683
  0.7564212928644025  0.7502606871761159  0.9919905393052417
  0.9833472859369934  0.0059029912653301  0.2593763519578047
  0.2431550425305744  0.0029533235306545  0.2479746749373248
  0.5020802299960607  0.0084246200271352  0.2489167794685656
  0.7584657608327632  0.9971006759511951  0.2555432487937992
  0.0090271526409182  0.2578801630343506  0.2414253673233873
  0.2358297612224973  0.2585399727200652  0.2551532880765492
  0.4912339951874998  0.2716391789762298  0.2413603015576342
  0.7541609317227937  0.2367664874252497  0.2451141560753882
  0.9923567090238450  0.5012607025294997  0.2571952637870751
  0.2541935432442060  0.5066589455390726  0.2530872775007964
  0.4951390154514428  0.5117894084368331  0.2421812350792436
  0.7537222355312423  0.4984824248904118  0.2476397993114645
  0.9930556832552710  0.7483444782819433  0.2522231061320923
  0.2568489415653588  0.7400350824684736  0.2469510273868920
  0.5047208145777020  0.7539765864754884  0.2520443571704050
  0.7479142412621158  0.7365546049778544  0.2567480291297883
  0.0020298627514563  0.9966914481719655  0.5011294425962660
  0.2518103015107869  0.0008105104769811  0.4956269947391263
  0.4997852155981164  0.0047059452065881  0.5014687567801701
  0.7427501407444623  0.0089895057976008  0.4999326917896312
  0.0146732445516022  0.2387237047726884  0.4913926157771655
  0.2563061872961185  0.2536185858105497  0.4960984889868740
  0.4914422496579078  0.2403895247867354  0.5113527128603437
  0.7493050091881770  0.2510119051235264  0.5004892302118904
  0.0011604515493673  0.4974577880262245  0.4932637899663916
  0.2450244105415891  0.5030033273636789  0.5024284927570619
  0.5017013629156750  0.5075241113170534  0.4921121957769756
  0.7491427175596570  0.5091334479014904  0.4957238774744184
  0.9934576292668780  0.7460560126481326  0.5016436164797469
  0.2435279309387823  0.7442754204572779  0.5061136943547240
  0.4965336643358214  0.7559836142510150  0.4990472022338395
  0.7552969530130653  0.7481277070390249  0.4991727871420082
  0.0211208564853465  0.9991919860332388  0.7486998264544056
  0.2581664172196270  0.9996864089094757  0.7367131226878882
  0.4891592993504332  0.0132157859810960  0.7491182277051252
  0.7478054293557435  0.9933040163237976  0.7567120899476407
  0.9965039829247786  0.2553775548810435  0.7422930322495276
  0.2425584613279952  0.2587247943667492  0.7532175830026873
  0.4974543006066057  0.2607129418021685  0.7416847289230546
  0.7517055286404855  0.2447245738459998  0.7580603689100727
  0.9925862817277036  0.5062117150348300  0.7492869193390632
  0.2461226254534807  0.4930995741846189  0.7544868761133685
  0.5086363352652441  0.4951723790428701  0.7479841105417009
  0.7435101473654058  0.4917854273004849  0.7587449932175829
  0.9975834735650650  0.7510954586597478  0.7519478507525577
  0.2532322601732986  0.7560218219940609  0.7396443935923287
  0.5095345350003910  0.7469382461644329  0.7503969439304186
  0.7514671500240624  0.7431929597722586  0.7513611931956348
  0.0586533454049061  0.0410140998317274  0.0800191948732589
  0.3129893100874668  0.0634658059468691  0.0686716842838777
  0.5654974299338917  0.0580765308765976  0.0726731742736106
  0.8023544493894121  0.0710349331027871  0.0666031389298567
  0.0659161209935988  0.3094269786701034  0.0614249363470520
  0.3233619846722107  0.3042198245235141  0.0637184350113102
  0.5631860981728707  0.3153733058274995  0.0558287991302180
  0.8152089965012763  0.3138619917829644  0.0563969334558863
  0.0564235379841804  0.5717747870234930  0.0669436622112229
  0.2990109465927304  0.5631000667836119  0.0635081214485709
  0.5814615629981148  0.5559341156118052  0.0564477002757968
  0.8158340799529427  0.5670040598913531  0.0555989569865645
  0.0708555209511204  0.8094175677103053  0.0589165092520858
  0.3186176732257309  0.8087883973650349  0.0604529676569712
  0.5454909614014980  0.8280823676908255  0.0632852441984966
  0.8165877646029358  0.8163680637227131  0.0511826115370795
  0.0588052008722357  0.0588937545723383  0.3099098314010789
  0.3249733450916992  0.0606954214961988  0.3147347534495566
  0.5639388669442695  0.0633176545220095  0.3107114459521654
  0.8132556630132797  0.0620944841326363  0.3190627729568973
  0.0554379840633601  0.3106065072776332  0.3153317986852429
  0.3052722462104853  0.3072795384444973  0.3215046445962173
  0.5594798275261255  0.3147052627144120  0.3205418610702182
  0.8209233651424839  0.2989990079924070  0.3145639800448023
  0.0708266375581132  0.5620973748795990  0.3174509245276269
  0.3185739480003136  0.5667355281251147  0.3102807664876153
  0.5630210321624389  0.5638398705525134  0.3182498244826064
  0.8093040872524000  0.5546741099290031  0.3217500355091616
  0.0655078398965685  0.8055441777219698  0.3130469402381451
  0.3090110740254062  0.8116802046892175  0.3115597740429550
  0.5509035977144592  0.8293696968916464  0.3137448691775120
  0.8022138739115476  0.8269894822045956  0.3112069190814637
  0.0617394365618509  0.0552941111380250  0.5651456992147388
  0.3062388900077835  0.0667866871925114  0.5676832434221026
  0.5565022030859410  0.0626785486979458  0.5699575960103402
  0.8171981017915044  0.0577636281910685  0.5634800666123283
  0.0662968376119721  0.3184253768399827  0.5567656324871990
  0.3139296773287370  0.3033262947151059  0.5654584052594132
  0.5657623072875282  0.3173831687408608  0.5582908969833653
  0.8032914592860365  0.3141600210213653  0.5630172162542308
  0.0566227374175483  0.5663961498243424  0.5473513850822016
  0.3014967227043996  0.5630465211959859  0.5655726074899476
  0.5614904815233785  0.5622199028009547  0.5621337965579585
  0.8126025771045349  0.5492581171867386  0.5803218692151333
  0.0677183318787939  0.8192419863908569  0.5617990204264203
  0.3126344983199942  0.8216573429881251  0.5559867666340494
  0.5543190482472014  0.8142004330168575  0.5703653931019801
  0.8132409201235049  0.8141479272926446  0.5675010930240134
  0.0438482481012201  0.0743694079653565  0.8133614692358790
  0.3012326516664174  0.0573833587446586  0.8134595078499345
  0.5625878314517294  0.0668317895481465  0.8063159125330515
  0.8144462936527006  0.0625623665320276  0.8087753825965578
  0.0584309900541555  0.3262625218662407  0.8060778871083869
  0.3081442323464856  0.3083697321344303  0.8267289976443308
  0.5741449485472288  0.3123704844868200  0.8026020028434786
  0.8174576065639769  0.3099304884134284  0.8032629540402496
  0.0723662590323428  0.5703473655645794  0.7974298006383691
  0.3217337308129444  0.5629249316376388  0.8092464714357561
  0.5577908071171507  0.5649694842833455  0.8131505636169862
  0.8101745732844350  0.5691185622042667  0.8126022075910271
  0.0659364189177722  0.8108136047955412  0.8115801273422676
  0.3037518677727107  0.8264698440109726  0.8084602096839717
  0.5536019331273536  0.8139639633722027  0.8173000888481639
  0.8205879612240992  0.8167347046125002  0.7949367389916020
 
  0.00000000E+00  0.00000000E+00  0.00000000E+00
  0.00000000E+00  0.00000000E+00  0.00000000E+00
  0.00000000E+00  0.00000000E+00  0.00000000E+00
  0.00000000E+00  0.00000000E+00  0.00000000E+00
  0.00000000E+00  0.00000000E+00  0.00000000E+00
  0.00000000E+00  0.00000000E+00  0.00000000E+00
  0.00000000E+00  0.00000000E+00  0.00000000E+00
  0.00000000E+00  0.00000000E+00  0.00000000E+00
  0.00000000E+00  0.00000000E+00  0.00000000E+00
  0.00000000E+00  0.00000000E+00  0.00000000E+00
  0.00000000E+00  0.00000000E+00  0.00000000E+00
  0.00000000E+00  0.00000000E+00  0.00000000E+00
  0.00000000E+00  0.00000000E+00  0.00000000E+00
  0.00000000E+00  0.00000000E+00  0.00000000E+00
  0.00000000E+00  0.00000000E+00  0.00000000E+00
  0.00000000E+00  0.00000000E+00  0.00000000E+00
  0.00000000E+00  0.00000000E+00  0.00000000E+00
  0.00000000E+00  0.00000000E+00  0.00000000E+00
  0.00000000E+00  0.00000000E+00  0.00000000E+00
  0.00000000E+00  0.00000000E+00  0.00000000E+00
  0.00000000E+00  0.00000000E+00  0.00000000E+00
  0.00000000E+00  0.00000000E+00  0.00000000E+00
  0.00000000E+00  0.00000000E+00  0.00000000E+00
  0.00000000E+00  0.00000000E+00  0.00000000E+00
  0.00000000E+00  0.00000000E+00  0.00000000E+00
  0.00000000E+00  0.00000000E+00  0.00000000E+00
  0.00000000E+00  0.00000000E+00  0.00000000E+00
  0.00000000E+00  0.00000000E+00  0.00000000E+00
  0.00000000E+00  0.00000000E+00  0.00000000E+00
  0.00000000E+00  0.00000000E+00  0.00000000E+00
  0.00000000E+00  0.00000000E+00  0.00000000E+00
  0.00000000E+00  0.00000000E+00  0.00000000E+00
  0.00000000E+00  0.00000000E+00  0.00000000E+00
  0.00000000E+00  0.00000000E+00  0.00000000E+00
  0.00000000E+00  0.00000000E+00  0.00000000E+00
  0.00000000E+00  0.00000000E+00  0.00000000E+00
  0.00000000E+00  0.00000000E+00  0.00000000E+00
  0.00000000E+00  0.00000000E+00  0.00000000E+00
  0.00000000E+00  0.00000000E+00  0.00000000E+00
  0.00000000E+00  0.00000000E+00  0.00000000E+00
  0.00000000E+00  0.00000000E+00  0.00000000E+00
  0.00000000E+00  0.00000000E+00  0.00000000E+00
  0.00000000E+00  0.00000000E+00  0.00000000E+00
  0.00000000E+00  0.00000000E+00  0.00000000E+00
  0.00000000E+00  0.00000000E+00  0.00000000E+00
  0.00000000E+00  0.00000000E+00  0.00000000E+00
  0.00000000E+00  0.00000000E+00  0.00000000E+00
  0.00000000E+00  0.00000000E+00  0.00000000E+00
  0.00000000E+00  0.00000000E+00  0.00000000E+00
  0.00000000E+00  0.00000000E+00  0.00000000E+00
  0.00000000E+00  0.00000000E+00  0.00000000E+00
  0.00000000E+00  0.00000000E+00  0.00000000E+00
  0.00000000E+00  0.00000000E+00  0.00000000E+00
  0.00000000E+00  0.00000000E+00  0.00000000E+00
  0.00000000E+00  0.00000000E+00  0.00000000E+00
  0.00000000E+00  0.00000000E+00  0.00000000E+00
  0.00000000E+00  0.00000000E+00  0.00000000E+00
  0.00000000E+00  0.00000000E+00  0.00000000E+00
  0.00000000E+00  0.00000000E+00  0.00000000E+00
  0.00000000E+00  0.00000000E+00  0.00000000E+00
  0.00000000E+00  0.00000000E+00  0.00000000E+00
  0.00000000E+00  0.00000000E+00  0.00000000E+00
  0.00000000E+00  0.00000000E+00  0.00000000E+00
  0.00000000E+00  0.00000000E+00  0.00000000E+00
  0.00000000E+00  0.00000000E+00  0.00000000E+00
  0.00000000E+00  0.00000000E+00  0.00000000E+00
  0.00000000E+00  0.00000000E+00  0.00000000E+00
  0.00000000E+00  0.00000000E+00  0.00000000E+00
  0.00000000E+00  0.00000000E+00  0.00000000E+00
  0.00000000E+00  0.00000000E+00  0.00000000E+00
  0.00000000E+00  0.00000000E+00  0.00000000E+00
  0.00000000E+00  0.00000000E+00  0.00000000E+00
  0.00000000E+00  0.00000000E+00  0.00000000E+00
  0.00000000E+00  0.00000000E+00  0.00000000E+00
  0.00000000E+00  0.00000000E+00  0.00000000E+00
  0.00000000E+00  0.00000000E+00  0.00000000E+00
  0.00000000E+00  0.00000000E+00  0.00000000E+00
  0.00000000E+00  0.00000000E+00  0.00000000E+00
  0.00000000E+00  0.00000000E+00  0.00000000E+00
  0.00000000E+00  0.00000000E+00  0.00000000E+00
  0.00000000E+00  0.00000000E+00  0.00000000E+00
  0.00000000E+00  0.00000000E+00  0.00000000E+00
  0.00000000E+00  0.00000000E+00  0.00000000E+00
  0.00000000E+00  0.00000000E+00  0.00000000E+00
  0.00000000E+00  0.00000000E+00  0.00000000E+00
  0.00000000E+00  0.00000000E+00  0.00000000E+00
  0.00000000E+00  0.00000000E+00  0.00000000E+00
  0.00000000E+00  0.00000000E+00  0.00000000E+00
  0.00000000E+00  0.00000000E+00  0.00000000E+00
  0.00000000E+00  0.00000000E+00  0.00000000E+00
  0.00000000E+00  0.00000000E+00  0.00000000E+00
  0.00000000E+00  0.00000000E+00  0.00000000E+00
  0.00000000E+00  0.00000000E+00  0.00000000E+00
  0.00000000E+00  0.00000000E+00  0.00000000E+00
  0.00000000E+00  0.00000000E+00  0.00000000E+00
  0.00000000E+00  0.00000000E+00  0.00000000E+00
  0.00000000E+00  0.00000000E+00  0.00000000E+00
  0.00000000E+00  0.00000000E+00  0.00000000E+00
  0.00000000E+00  0.00000000E+00  0.00000000E+00
  0.00000000E+00  0.00000000E+00  0.00000000E+00
  0.00000000E+00  0.00000000E+00  0.00000000E+00
  0.00000000E+00  0.00000000E+00  0.00000000E+00
  0.00000000E+00  0.00000000E+00  0.00000000E+00
  0.00000000E+00  0.00000000E+00  0.00000000E+00
  0.00000000E+00  0.00000000E+00  0.00000000E+00
  0.00000000E+00  0.00000000E+00  0.00000000E+00
  0.00000000E+00  0.00000000E+00  0.00000000E+00
  0.00000000E+00  0.00000000E+00  0.00000000E+00
  0.00000000E+00  0.00000000E+00  0.00000000E+00
  0.00000000E+00  0.00000000E+00  0.00000000E+00
  0.00000000E+00  0.00000000E+00  0.00000000E+00
  0.00000000E+00  0.00000000E+00  0.00000000E+00
  0.00000000E+00  0.00000000E+00  0.00000000E+00
  0.00000000E+00  0.00000000E+00  0.00000000E+00
  0.00000000E+00  0.00000000E+00  0.00000000E+00
  0.00000000E+00  0.00000000E+00  0.00000000E+00
  0.00000000E+00  0.00000000E+00  0.00000000E+00
  0.00000000E+00  0.00000000E+00  0.00000000E+00
  0.00000000E+00  0.00000000E+00  0.00000000E+00
  0.00000000E+00  0.00000000E+00  0.00000000E+00
  0.00000000E+00  0.00000000E+00  0.00000000E+00
  0.00000000E+00  0.00000000E+00  0.00000000E+00
  0.00000000E+00  0.00000000E+00  0.00000000E+00
  0.00000000E+00  0.00000000E+00  0.00000000E+00
  0.00000000E+00  0.00000000E+00  0.00000000E+00
  0.00000000E+00  0.00000000E+00  0.00000000E+00
  0.00000000E+00  0.00000000E+00  0.00000000E+00
  0.00000000E+00  0.00000000E+00  0.00000000E+00
