kk
 1.0000000000000000
     0.0000000000000000   10.9373336906932952   10.9373336906932952
    10.9373336906932952    0.0000000000000000   10.9373336906932952
    10.9373336906932952   10.9373336906932952    0.0000000000000000
 128
Direct
  0.0054922531773434  0.9993225627385115  0.9944229477608616
  0.2407543985040075  0.9948527329042327  0.0061337412607874
  0.4863002537233427  0.9957351326241908  0.0097349353815945
  0.7456197891714121  0.0084983180386100  0.9991563138880452
  0.0094298160531482  0.2404310895223642  0.9917936636449294
  0.2502318811716229  0.2457149034962962  0.0160619071198827
  0.5121282982603645  0.2613378130677250  0.9871146511233744
  0.7606576032973100  0.2475163907864945  0.9952769074409420
  0.0075352652085618  0.4960886277043067  0.9917416471364120
  0.2443880604452976  0.5038471610628528  0.9999288292798018
  0.4972026634712704  0.5031931950574831  0.9942878672258811
  0.7662748189367209  0.4898684266012251  0.9991839679195663
  0.0002142887747908  0.7561135652600451  0.0065482793401506
  0.2510985841578864  0.7428085302122355  0.0042422632527753
  0.5034851887159489  0.7397341190079094  0.9914591565967668
  0.7564212928644013  0.7502606871761165  0.9919905393052429
  0.9833472859369936  0.0059029912653283  0.2593763519578059
  0.2431550425305740  0.0029533235306519  0.2479746749373284
  0.5020802299960581  0.0084246200271352  0.2489167794685635
  0.7584657608327636  0.9971006759511961  0.2555432487938010
  0.0090271526409186  0.2578801630343504  0.2414253673233890
  0.2358297612224984  0.2585399727200624  0.2551532880765493
  0.4912339951874980  0.2716391789762287  0.2413603015576312
  0.7541609317227903  0.2367664874252499  0.2451141560753860
  0.9923567090238479  0.5012607025294996  0.2571952637870757
  0.2541935432442028  0.5066589455390701  0.2530872775007936
  0.4951390154514428  0.5117894084368324  0.2421812350792404
  0.7537222355312447  0.4984824248904113  0.2476397993114658
  0.9930556832552745  0.7483444782819405  0.2522231061320950
  0.2568489415653553  0.7400350824684730  0.2469510273868916
  0.5047208145777052  0.7539765864754902  0.2520443571704082
  0.7479142412621179  0.7365546049778544  0.2567480291297852
  0.0020298627514592  0.9966914481719669  0.5011294425962654
  0.2518103015107894  0.0008105104769844  0.4956269947391285
  0.4997852155981165  0.0047059452065900  0.5014687567801679
  0.7427501407444618  0.0089895057976037  0.4999326917896336
  0.0146732445516011  0.2387237047726882  0.4913926157771621
  0.2563061872961181  0.2536185858105493  0.4960984889868755
  0.4914422496579066  0.2403895247867370  0.5113527128603419
  0.7493050091881771  0.2510119051235255  0.5004892302118924
  0.0011604515493689  0.4974577880262222  0.4932637899663903
  0.2450244105415910  0.5030033273636767  0.5024284927570635
  0.5017013629156750  0.5075241113170559  0.4921121957769751
  0.7491427175596543  0.5091334479014893  0.4957238774744219
  0.9934576292668754  0.7460560126481299  0.5016436164797451
  0.2435279309387836  0.7442754204572745  0.5061136943547248
  0.4965336643358233  0.7559836142510123  0.4990472022338391
  0.7552969530130631  0.7481277070390263  0.4991727871420117
  0.0211208564853433  0.9991919860332404  0.7486998264544072
  0.2581664172196265  0.9996864089094730  0.7367131226878856
  0.4891592993504348  0.0132157859810975  0.7491182277051287
  0.7478054293557429  0.9933040163238007  0.7567120899476423
  0.9965039829247799  0.2553775548810438  0.7422930322495275
  0.2425584613279958  0.2587247943667504  0.7532175830026878
  0.4974543006066032  0.2607129418021663  0.7416847289230539
  0.7517055286404886  0.2447245738459994  0.7580603689100740
  0.9925862817277042  0.5062117150348278  0.7492869193390618
  0.2461226254534805  0.4930995741846220  0.7544868761133718
  0.5086363352652439  0.4951723790428706  0.7479841105417032
  0.7435101473654029  0.4917854273004872  0.7587449932175828
  0.9975834735650642  0.7510954586597494  0.7519478507525592
  0.2532322601732955  0.7560218219940632  0.7396443935923263
  0.5095345350003878  0.7469382461644301  0.7503969439304166
  0.7514671500240652  0.7431929597722551  0.7513611931956382
  0.0586533454049039  0.0410140998317276  0.0800191948732568
  0.3129893100874652  0.0634658059468712  0.0686716842838770
  0.5654974299338950  0.0580765308765963  0.0726731742736078
  0.8023544493894110  0.0710349331027902  0.0666031389298545
  0.0659161209936011  0.3094269786701030  0.0614249363470491
  0.3233619846722088  0.3042198245235108  0.0637184350113092
  0.5631860981728701  0.3153733058274965  0.0558287991302146
  0.8152089965012731  0.3138619917829637  0.0563969334558880
  0.0564235379841797  0.5717747870234958  0.0669436622112216
  0.2990109465927307  0.5631000667836110  0.0635081214485692
  0.5814615629981178  0.5559341156118079  0.0564477002757938
  0.8158340799529421  0.5670040598913508  0.0555989569865621
  0.0708555209511202  0.8094175677103066  0.0589165092520859
  0.3186176732257301  0.8087883973650343  0.0604529676569700
  0.5454909614014980  0.8280823676908287  0.0632852441984962
  0.8165877646029335  0.8163680637227101  0.0511826115370789
  0.0588052008722322  0.0588937545723375  0.3099098314010815
  0.3249733450916998  0.0606954214962003  0.3147347534495580
  0.5639388669442692  0.0633176545220129  0.3107114459521638
  0.8132556630132783  0.0620944841326357  0.3190627729569001
  0.0554379840633605  0.3106065072776352  0.3153317986852395
  0.3052722462104872  0.3072795384445006  0.3215046445962178
  0.5594798275261234  0.3147052627144086  0.3205418610702161
  0.8209233651424828  0.2989990079924078  0.3145639800448006
  0.0708266375581121  0.5620973748796012  0.3174509245276302
  0.3185739480003162  0.5667355281251168  0.3102807664876172
  0.5630210321624393  0.5638398705525166  0.3182498244826099
  0.8093040872524021  0.5546741099290039  0.3217500355091613
  0.0655078398965708  0.8055441777219716  0.3130469402381484
  0.3090110740254072  0.8116802046892173  0.3115597740429556
  0.5509035977144576  0.8293696968916490  0.3137448691775094
  0.8022138739115489  0.8269894822045933  0.3112069190814604
  0.0617394365618525  0.0552941111380234  0.5651456992147411
  0.3062388900077864  0.0667866871925091  0.5676832434221039
  0.5565022030859423  0.0626785486979493  0.5699575960103381
  0.8171981017915058  0.0577636281910705  0.5634800666123289
  0.0662968376119714  0.3184253768399810  0.5567656324871999
  0.3139296773287394  0.3033262947151059  0.5654584052594145
  0.5657623072875292  0.3173831687408605  0.5582908969833666
  0.8032914592860395  0.3141600210213684  0.5630172162542282
  0.0566227374175513  0.5663961498243422  0.5473513850822034
  0.3014967227043990  0.5630465211959841  0.5655726074899462
  0.5614904815233813  0.5622199028009541  0.5621337965579600
  0.8126025771045372  0.5492581171867417  0.5803218692151362
  0.0677183318787908  0.8192419863908590  0.5617990204264186
  0.3126344983199963  0.8216573429881258  0.5559867666340487
  0.5543190482472006  0.8142004330168560  0.5703653931019769
  0.8132409201235025  0.8141479272926451  0.5675010930240135
  0.0438482481012176  0.0743694079653544  0.8133614692358789
  0.3012326516664151  0.0573833587446606  0.8134595078499367
  0.5625878314517309  0.0668317895481496  0.8063159125330509
  0.8144462936527040  0.0625623665320298  0.8087753825965567
  0.0584309900541526  0.3262625218662419  0.8060778871083855
  0.3081442323464867  0.3083697321344271  0.8267289976443281
  0.5741449485472276  0.3123704844868175  0.8026020028434754
  0.8174576065639799  0.3099304884134297  0.8032629540402498
  0.0723662590323454  0.5703473655645815  0.7974298006383699
  0.3217337308129429  0.5629249316376405  0.8092464714357570
  0.5577908071171540  0.5649694842833459  0.8131505636169845
  0.8101745732844374  0.5691185622042637  0.8126022075910247
  0.0659364189177716  0.8108136047955419  0.8115801273422667
  0.3037518677727106  0.8264698440109722  0.8084602096839697
  0.5536019331273538  0.8139639633722046  0.8173000888481637
  0.8205879612240997  0.8167347046124985  0.7949367389915996
