kk                                      
   1.00000000000000     
     0.0000000000000000   10.9373336906932952   10.9373336906932952
    10.9373336906932952    0.0000000000000000   10.9373336906932952
    10.9373336906932952   10.9373336906932952    0.0000000000000000
   Si
   128
Direct
  0.9890726503720160  0.0065971135401384  0.9957184401648149
  0.2430412813486242  0.0015489342220789  0.0047014058332309
  0.5006155024285803  0.9971430854028114  0.0117224641972840
  0.7600423230331188  0.9905996181190488  0.0018603746315193
  0.9992369637640195  0.2449827071692212  0.0091854335568371
  0.2590537543432561  0.2416911881859818  0.0056685450484935
  0.5044657929718639  0.2400019206844775  0.0021436666717918
  0.7527564844099786  0.2466960555033424  0.9879138721634675
  0.9989551927647113  0.4994527152807891  0.0063954370637447
  0.2584338999233964  0.5086593947519589  0.9988467914085035
  0.5011769161449280  0.5184788619320670  0.9877877524418537
  0.7473385427835737  0.4905461416102312  0.0080279566215964
  0.0061753081129581  0.7445097371982072  0.0051675290110111
  0.2517343403574657  0.7540494287119230  0.0046215526265954
  0.5031870035660049  0.7466985057954503  0.9989374688158463
  0.7457674019176466  0.7503175779412814  0.0072229337705849
  0.0027046740694416  0.0048863938950703  0.2383729380250585
  0.2653788202259406  0.9932029293541831  0.2394104076446695
  0.4881779942662448  0.0102880487366690  0.2452942149163349
  0.7431667102904740  0.0043280568377426  0.2444304268074760
  0.0033037003136940  0.2417692284886783  0.2617715266705716
  0.2427297118712062  0.2476940651642607  0.2612028303621159
  0.4948760933182541  0.2636080569104777  0.2371127193763698
  0.7403823243343979  0.2509083340972609  0.2483125969393285
  0.9955067671238211  0.4998932166161509  0.2459990950520137
  0.2619962983132922  0.4956590445974172  0.2555742841672384
  0.5028023631774943  0.4978257790416549  0.2493833210388416
  0.7414051952990235  0.5008423719829764  0.2542773862733938
  0.0008727081616158  0.7575349869739298  0.2496242063505321
  0.2558579231785743  0.7509872873919079  0.2521612597099008
  0.5024545076319953  0.7493048748967297  0.2457560502287066
  0.7453445345332028  0.7580102224184486  0.2411491619373578
  0.9980502244797336  0.9953070601417480  0.4990759804507903
  0.2544094809492989  0.9973386793400465  0.5053671838540552
  0.4942925879297775  0.9980843756516009  0.5015836265471449
  0.7461862479639834  0.0016707442663559  0.5121100765279394
  0.9993410538310599  0.2486596344219194  0.4811927735285906
  0.2590057329422635  0.2518015209798676  0.4931957180530944
  0.4953647818565017  0.2661964840014548  0.4906209526476175
  0.7538340430991468  0.2638160895137673  0.4870694588288202
  0.9904332660131985  0.4986702618267529  0.4999688709530616
  0.2499707743482915  0.5090400470850582  0.4843514619398235
  0.5090072304112070  0.5042272161183732  0.4966254511056079
  0.7530776989285997  0.4962037972455633  0.5048763235053713
  0.9951893652269277  0.7509803347055097  0.4989382131511562
  0.2477993518311408  0.7552919982630542  0.4993628247714810
  0.5017808126328376  0.7499691973811409  0.4948539980707523
  0.7316178585246789  0.7628450079619142  0.4997100770494427
  0.9921233242924927  0.9966583997703182  0.7500669310173365
  0.2456697331855224  0.9950687756886936  0.7491034591431216
  0.4954656182098702  0.0067887290632811  0.7445652109314125
  0.7542626924170932  0.9956996894022083  0.7501797170259223
  0.9960283740030036  0.2477902905002765  0.7638402669913376
  0.2408367139368721  0.2581372204683490  0.7454468933467666
  0.4969337299079513  0.2486181824748428  0.7531179811077706
  0.7441505481641570  0.2622682562597163  0.7540472980203035
  0.9928659124604806  0.5109072416440057  0.7484483440626661
  0.2460972311873775  0.4980106801548132  0.7572286366624041
  0.4933911297948086  0.5047861095589425  0.7583076477705504
  0.7429230317701609  0.4967703107713888  0.7511520401335190
  0.0074174732125556  0.7543971259871185  0.7391278511384485
  0.2541144861176221  0.7469454016406658  0.7505627636630976
  0.4913623291155602  0.7550113997812886  0.7488654242161488
  0.7509828995020769  0.7477007134108504  0.7607695471473832
  0.0606087305088892  0.0654001989030562  0.0639311258216537
  0.3045436969424529  0.0721572104352646  0.0586831387843745
  0.5705447557502694  0.0517906202485889  0.0659957257835444
  0.7991248812166276  0.0620335709011002  0.0636653223358081
  0.0648721816547635  0.3064052256675325  0.0609325753337160
  0.3059536882137905  0.3107601377954552  0.0647267367695861
  0.5743219289275459  0.3111106073905532  0.0648881324489921
  0.8232939926723830  0.3182293462457011  0.0458901047928180
  0.0527114952173520  0.5693191920360618  0.0613886641487795
  0.3065054439380717  0.5734887510935138  0.0662850526609873
  0.5604937320333079  0.5724769024380265  0.0675648951086174
  0.8166060400894963  0.5613239830756100  0.0652839644130196
  0.0662517207718949  0.8085399394385746  0.0576052806308880
  0.3032737127623832  0.8089950883540880  0.0711705758700560
  0.5623342591627818  0.7976475813133774  0.0650335638842989
  0.8120849110954111  0.8148994989461400  0.0589467168494551
  0.0562176609583034  0.0598537114197129  0.3102386274243685
  0.3128785089877226  0.0621764766968766  0.3099088476335297
  0.5588704865735252  0.0757506309508145  0.3104190472521751
  0.8097500663382107  0.0632623357689965  0.3054457154043035
  0.0612097007785977  0.3187204818489846  0.3051696388776506
  0.2980294057881707  0.3235322906648506  0.3125185526760461
  0.5612819311095691  0.3214509375815950  0.3091950205626048
  0.8137376188510501  0.3103551132479438  0.3041925056958164
  0.0686569457762687  0.5484727832788963  0.3088326759839291
  0.3141909550845696  0.5637479312842117  0.3117116883804343
  0.5547318030657777  0.5656902162295694  0.3195947168662769
  0.8164858850572259  0.5713358025493420  0.3098714515096717
  0.0651082020864493  0.8166645548730074  0.3091220091671687
  0.3205198970791727  0.8095670566242603  0.3107338972745595
  0.5659476916444461  0.8109480943625584  0.3103369336383537
  0.8147827034695965  0.8095821845665796  0.3187675066302162
  0.0362046658684321  0.0746253805542523  0.5724525601738151
  0.3122434937710139  0.0505890578395096  0.5719667353647182
  0.5541367080359407  0.0720962783591048  0.5600930137140807
  0.8188467256861429  0.0562844027278828  0.5632125272141408
  0.0596808481618041  0.3067398974989430  0.5608582001436915
  0.3127815916443524  0.3047056397062633  0.5713166694218259
  0.5618522571318039  0.3116597298725523  0.5647888516727733
  0.8112553334712445  0.3225807080040113  0.5649052998198627
  0.0572113569773833  0.5588872442247137  0.5594092144278520
  0.3131042599672753  0.5688238715070355  0.5529989380886349
  0.5499016161271797  0.5612771912857255  0.5668485303965767
  0.8144137118503707  0.5667500663831433  0.5736725798080684
  0.0584433008265322  0.8108335250569283  0.5614997348490647
  0.3254921554312205  0.8025760492109697  0.5580787436927110
  0.5535126495050235  0.8177686960668424  0.5666638222929876
  0.8045174356132492  0.8065862819870731  0.5690886579249153
  0.0610221184978954  0.0657562435427010  0.8128675822284208
  0.2984064109083064  0.0617416404409354  0.8176911445599444
  0.5703689181448368  0.0553561243170222  0.8163753428181550
  0.8078589094800819  0.0642431800926673  0.8172429008962965
  0.0548170312883016  0.3312140046373528  0.8079754675521400
  0.3075259805280979  0.3184705904765082  0.8121142177813212
  0.5558958111738761  0.3244173894021358  0.8059832402766673
  0.8160765957879690  0.3245524753876268  0.8100150453497648
  0.0677035058214841  0.5590295164904902  0.8068516136428272
  0.3098112516207649  0.5584484003865740  0.8182736663840799
  0.5526925565094345  0.5717156562362575  0.8218451403119857
  0.8099907891523017  0.5671788016030135  0.8122779543909928
  0.0644553696109398  0.8103272632715033  0.8096615533089846
  0.3139304131893894  0.8130874196831925  0.8088593825771611
  0.5698691275309926  0.8099086887862015  0.8092736218599796
  0.8207827959672400  0.8151027258779706  0.8026167674948752
 
  0.00000000E+00  0.00000000E+00  0.00000000E+00
  0.00000000E+00  0.00000000E+00  0.00000000E+00
  0.00000000E+00  0.00000000E+00  0.00000000E+00
  0.00000000E+00  0.00000000E+00  0.00000000E+00
  0.00000000E+00  0.00000000E+00  0.00000000E+00
  0.00000000E+00  0.00000000E+00  0.00000000E+00
  0.00000000E+00  0.00000000E+00  0.00000000E+00
  0.00000000E+00  0.00000000E+00  0.00000000E+00
  0.00000000E+00  0.00000000E+00  0.00000000E+00
  0.00000000E+00  0.00000000E+00  0.00000000E+00
  0.00000000E+00  0.00000000E+00  0.00000000E+00
  0.00000000E+00  0.00000000E+00  0.00000000E+00
  0.00000000E+00  0.00000000E+00  0.00000000E+00
  0.00000000E+00  0.00000000E+00  0.00000000E+00
  0.00000000E+00  0.00000000E+00  0.00000000E+00
  0.00000000E+00  0.00000000E+00  0.00000000E+00
  0.00000000E+00  0.00000000E+00  0.00000000E+00
  0.00000000E+00  0.00000000E+00  0.00000000E+00
  0.00000000E+00  0.00000000E+00  0.00000000E+00
  0.00000000E+00  0.00000000E+00  0.00000000E+00
  0.00000000E+00  0.00000000E+00  0.00000000E+00
  0.00000000E+00  0.00000000E+00  0.00000000E+00
  0.00000000E+00  0.00000000E+00  0.00000000E+00
  0.00000000E+00  0.00000000E+00  0.00000000E+00
  0.00000000E+00  0.00000000E+00  0.00000000E+00
  0.00000000E+00  0.00000000E+00  0.00000000E+00
  0.00000000E+00  0.00000000E+00  0.00000000E+00
  0.00000000E+00  0.00000000E+00  0.00000000E+00
  0.00000000E+00  0.00000000E+00  0.00000000E+00
  0.00000000E+00  0.00000000E+00  0.00000000E+00
  0.00000000E+00  0.00000000E+00  0.00000000E+00
  0.00000000E+00  0.00000000E+00  0.00000000E+00
  0.00000000E+00  0.00000000E+00  0.00000000E+00
  0.00000000E+00  0.00000000E+00  0.00000000E+00
  0.00000000E+00  0.00000000E+00  0.00000000E+00
  0.00000000E+00  0.00000000E+00  0.00000000E+00
  0.00000000E+00  0.00000000E+00  0.00000000E+00
  0.00000000E+00  0.00000000E+00  0.00000000E+00
  0.00000000E+00  0.00000000E+00  0.00000000E+00
  0.00000000E+00  0.00000000E+00  0.00000000E+00
  0.00000000E+00  0.00000000E+00  0.00000000E+00
  0.00000000E+00  0.00000000E+00  0.00000000E+00
  0.00000000E+00  0.00000000E+00  0.00000000E+00
  0.00000000E+00  0.00000000E+00  0.00000000E+00
  0.00000000E+00  0.00000000E+00  0.00000000E+00
  0.00000000E+00  0.00000000E+00  0.00000000E+00
  0.00000000E+00  0.00000000E+00  0.00000000E+00
  0.00000000E+00  0.00000000E+00  0.00000000E+00
  0.00000000E+00  0.00000000E+00  0.00000000E+00
  0.00000000E+00  0.00000000E+00  0.00000000E+00
  0.00000000E+00  0.00000000E+00  0.00000000E+00
  0.00000000E+00  0.00000000E+00  0.00000000E+00
  0.00000000E+00  0.00000000E+00  0.00000000E+00
  0.00000000E+00  0.00000000E+00  0.00000000E+00
  0.00000000E+00  0.00000000E+00  0.00000000E+00
  0.00000000E+00  0.00000000E+00  0.00000000E+00
  0.00000000E+00  0.00000000E+00  0.00000000E+00
  0.00000000E+00  0.00000000E+00  0.00000000E+00
  0.00000000E+00  0.00000000E+00  0.00000000E+00
  0.00000000E+00  0.00000000E+00  0.00000000E+00
  0.00000000E+00  0.00000000E+00  0.00000000E+00
  0.00000000E+00  0.00000000E+00  0.00000000E+00
  0.00000000E+00  0.00000000E+00  0.00000000E+00
  0.00000000E+00  0.00000000E+00  0.00000000E+00
  0.00000000E+00  0.00000000E+00  0.00000000E+00
  0.00000000E+00  0.00000000E+00  0.00000000E+00
  0.00000000E+00  0.00000000E+00  0.00000000E+00
  0.00000000E+00  0.00000000E+00  0.00000000E+00
  0.00000000E+00  0.00000000E+00  0.00000000E+00
  0.00000000E+00  0.00000000E+00  0.00000000E+00
  0.00000000E+00  0.00000000E+00  0.00000000E+00
  0.00000000E+00  0.00000000E+00  0.00000000E+00
  0.00000000E+00  0.00000000E+00  0.00000000E+00
  0.00000000E+00  0.00000000E+00  0.00000000E+00
  0.00000000E+00  0.00000000E+00  0.00000000E+00
  0.00000000E+00  0.00000000E+00  0.00000000E+00
  0.00000000E+00  0.00000000E+00  0.00000000E+00
  0.00000000E+00  0.00000000E+00  0.00000000E+00
  0.00000000E+00  0.00000000E+00  0.00000000E+00
  0.00000000E+00  0.00000000E+00  0.00000000E+00
  0.00000000E+00  0.00000000E+00  0.00000000E+00
  0.00000000E+00  0.00000000E+00  0.00000000E+00
  0.00000000E+00  0.00000000E+00  0.00000000E+00
  0.00000000E+00  0.00000000E+00  0.00000000E+00
  0.00000000E+00  0.00000000E+00  0.00000000E+00
  0.00000000E+00  0.00000000E+00  0.00000000E+00
  0.00000000E+00  0.00000000E+00  0.00000000E+00
  0.00000000E+00  0.00000000E+00  0.00000000E+00
  0.00000000E+00  0.00000000E+00  0.00000000E+00
  0.00000000E+00  0.00000000E+00  0.00000000E+00
  0.00000000E+00  0.00000000E+00  0.00000000E+00
  0.00000000E+00  0.00000000E+00  0.00000000E+00
  0.00000000E+00  0.00000000E+00  0.00000000E+00
  0.00000000E+00  0.00000000E+00  0.00000000E+00
  0.00000000E+00  0.00000000E+00  0.00000000E+00
  0.00000000E+00  0.00000000E+00  0.00000000E+00
  0.00000000E+00  0.00000000E+00  0.00000000E+00
  0.00000000E+00  0.00000000E+00  0.00000000E+00
  0.00000000E+00  0.00000000E+00  0.00000000E+00
  0.00000000E+00  0.00000000E+00  0.00000000E+00
  0.00000000E+00  0.00000000E+00  0.00000000E+00
  0.00000000E+00  0.00000000E+00  0.00000000E+00
  0.00000000E+00  0.00000000E+00  0.00000000E+00
  0.00000000E+00  0.00000000E+00  0.00000000E+00
  0.00000000E+00  0.00000000E+00  0.00000000E+00
  0.00000000E+00  0.00000000E+00  0.00000000E+00
  0.00000000E+00  0.00000000E+00  0.00000000E+00
  0.00000000E+00  0.00000000E+00  0.00000000E+00
  0.00000000E+00  0.00000000E+00  0.00000000E+00
  0.00000000E+00  0.00000000E+00  0.00000000E+00
  0.00000000E+00  0.00000000E+00  0.00000000E+00
  0.00000000E+00  0.00000000E+00  0.00000000E+00
  0.00000000E+00  0.00000000E+00  0.00000000E+00
  0.00000000E+00  0.00000000E+00  0.00000000E+00
  0.00000000E+00  0.00000000E+00  0.00000000E+00
  0.00000000E+00  0.00000000E+00  0.00000000E+00
  0.00000000E+00  0.00000000E+00  0.00000000E+00
  0.00000000E+00  0.00000000E+00  0.00000000E+00
  0.00000000E+00  0.00000000E+00  0.00000000E+00
  0.00000000E+00  0.00000000E+00  0.00000000E+00
  0.00000000E+00  0.00000000E+00  0.00000000E+00
  0.00000000E+00  0.00000000E+00  0.00000000E+00
  0.00000000E+00  0.00000000E+00  0.00000000E+00
  0.00000000E+00  0.00000000E+00  0.00000000E+00
  0.00000000E+00  0.00000000E+00  0.00000000E+00
  0.00000000E+00  0.00000000E+00  0.00000000E+00
  0.00000000E+00  0.00000000E+00  0.00000000E+00
  0.00000000E+00  0.00000000E+00  0.00000000E+00
