kk
 1.0000000000000000
     0.0000000000000000   10.9373336906932952   10.9373336906932952
    10.9373336906932952    0.0000000000000000   10.9373336906932952
    10.9373336906932952   10.9373336906932952    0.0000000000000000
 128
Direct
  0.9890726503720187  0.0065971135401386  0.9957184401648158
  0.2430412813486247  0.0015489342220771  0.0047014058332333
  0.5006155024285814  0.9971430854028103  0.0117224641972863
  0.7600423230331166  0.9905996181190504  0.0018603746315167
  0.9992369637640222  0.2449827071692233  0.0091854335568374
  0.2590537543432562  0.2416911881859793  0.0056685450484954
  0.5044657929718612  0.2400019206844808  0.0021436666717887
  0.7527564844099780  0.2466960555033420  0.9879138721634706
  0.9989551927647126  0.4994527152807858  0.0063954370637471
  0.2584338999233980  0.5086593947519568  0.9988467914085054
  0.5011769161449290  0.5184788619320647  0.9877877524418526
  0.7473385427835738  0.4905461416102331  0.0080279566215979
  0.0061753081129616  0.7445097371982090  0.0051675290110110
  0.2517343403574636  0.7540494287119199  0.0046215526265987
  0.5031870035660077  0.7466985057954538  0.9989374688158448
  0.7457674019176489  0.7503175779412804  0.0072229337705843
  0.0027046740694391  0.0048863938950682  0.2383729380250571
  0.2653788202259413  0.9932029293541813  0.2394104076446696
  0.4881779942662429  0.0102880487366660  0.2452942149163345
  0.7431667102904722  0.0043280568377432  0.2444304268074784
  0.0033037003136920  0.2417692284886760  0.2617715266705734
  0.2427297118712028  0.2476940651642633  0.2612028303621190
  0.4948760933182559  0.2636080569104767  0.2371127193763705
  0.7403823243343964  0.2509083340972589  0.2483125969393252
  0.9955067671238194  0.4998932166161533  0.2459990950520160
  0.2619962983132957  0.4956590445974206  0.2555742841672399
  0.5028023631774914  0.4978257790416518  0.2493833210388393
  0.7414051952990225  0.5008423719829742  0.2542773862733970
  0.0008727081616146  0.7575349869739302  0.2496242063505333
  0.2558579231785763  0.7509872873919069  0.2521612597098978
  0.5024545076319933  0.7493048748967323  0.2457560502287039
  0.7453445345332058  0.7580102224184521  0.2411491619373587
  0.9980502244797332  0.9953070601417495  0.4990759804507899
  0.2544094809492959  0.9973386793400471  0.5053671838540539
  0.4942925879297778  0.9980843756516001  0.5015836265471478
  0.7461862479639858  0.0016707442663524  0.5121100765279372
  0.9993410538310585  0.2486596344219204  0.4811927735285894
  0.2590057329422653  0.2518015209798652  0.4931957180530910
  0.4953647818565048  0.2661964840014568  0.4906209526476155
  0.7538340430991460  0.2638160895137692  0.4870694588288199
  0.9904332660131960  0.4986702618267563  0.4999688709530635
  0.2499707743482941  0.5090400470850588  0.4843514619398244
  0.5090072304112067  0.5042272161183746  0.4966254511056096
  0.7530776989285962  0.4962037972455622  0.5048763235053693
  0.9951893652269304  0.7509803347055107  0.4989382131511536
  0.2477993518311435  0.7552919982630549  0.4993628247714788
  0.5017808126328350  0.7499691973811385  0.4948539980707533
  0.7316178585246779  0.7628450079619176  0.4997100770494430
  0.9921233242924934  0.9966583997703191  0.7500669310173360
  0.2456697331855235  0.9950687756886913  0.7491034591431220
  0.4954656182098695  0.0067887290632836  0.7445652109314101
  0.7542626924170909  0.9956996894022055  0.7501797170259220
  0.9960283740030035  0.2477902905002782  0.7638402669913340
  0.2408367139368711  0.2581372204683491  0.7454468933467647
  0.4969337299079535  0.2486181824748456  0.7531179811077723
  0.7441505481641587  0.2622682562597147  0.7540472980203037
  0.9928659124604804  0.5109072416440060  0.7484483440626654
  0.2460972311873791  0.4980106801548114  0.7572286366624075
  0.4933911297948060  0.5047861095589432  0.7583076477705513
  0.7429230317701633  0.4967703107713861  0.7511520401335208
  0.0074174732125548  0.7543971259871197  0.7391278511384456
  0.2541144861176240  0.7469454016406685  0.7505627636630963
  0.4913623291155593  0.7550113997812856  0.7488654242161521
  0.7509828995020750  0.7477007134108484  0.7607695471473864
  0.0606087305088891  0.0654001989030565  0.0639311258216523
  0.3045436969424538  0.0721572104352672  0.0586831387843715
  0.5705447557502709  0.0517906202485858  0.0659957257835420
  0.7991248812166294  0.0620335709010980  0.0636653223358108
  0.0648721816547622  0.3064052256675351  0.0609325753337126
  0.3059536882137877  0.3107601377954532  0.0647267367695866
  0.5743219289275455  0.3111106073905544  0.0648881324489913
  0.8232939926723828  0.3182293462456990  0.0458901047928164
  0.0527114952173554  0.5693191920360613  0.0613886641487826
  0.3065054439380698  0.5734887510935155  0.0662850526609904
  0.5604937320333064  0.5724769024380255  0.0675648951086206
  0.8166060400894971  0.5613239830756067  0.0652839644130189
  0.0662517207718924  0.8085399394385736  0.0576052806308859
  0.3032737127623847  0.8089950883540895  0.0711705758700588
  0.5623342591627808  0.7976475813133741  0.0650335638843022
  0.8120849110954080  0.8148994989461379  0.0589467168494576
  0.0562176609583066  0.0598537114197156  0.3102386274243664
  0.3128785089877208  0.0621764766968794  0.3099088476335320
  0.5588704865735276  0.0757506309508150  0.3104190472521758
  0.8097500663382133  0.0632623357689946  0.3054457154043039
  0.0612097007785984  0.3187204818489849  0.3051696388776498
  0.2980294057881716  0.3235322906648491  0.3125185526760442
  0.5612819311095679  0.3214509375815935  0.3091950205626060
  0.8137376188510497  0.3103551132479436  0.3041925056958147
  0.0686569457762655  0.5484727832788928  0.3088326759839278
  0.3141909550845667  0.5637479312842097  0.3117116883804309
  0.5547318030657765  0.5656902162295683  0.3195947168662734
  0.8164858850572232  0.5713358025493451  0.3098714515096745
  0.0651082020864513  0.8166645548730103  0.3091220091671652
  0.3205198970791746  0.8095670566242608  0.3107338972745630
  0.5659476916444439  0.8109480943625561  0.3103369336383529
  0.8147827034695961  0.8095821845665768  0.3187675066302169
  0.0362046658684349  0.0746253805542514  0.5724525601738163
  0.3122434937710173  0.0505890578395116  0.5719667353647155
  0.5541367080359433  0.0720962783591026  0.5600930137140818
  0.8188467256861452  0.0562844027278851  0.5632125272141441
  0.0596808481618035  0.3067398974989429  0.5608582001436934
  0.3127815916443544  0.3047056397062616  0.5713166694218226
  0.5618522571318065  0.3116597298725500  0.5647888516727729
  0.8112553334712410  0.3225807080040140  0.5649052998198646
  0.0572113569773835  0.5588872442247106  0.5594092144278525
  0.3131042599672746  0.5688238715070368  0.5529989380886314
  0.5499016161271810  0.5612771912857271  0.5668485303965773
  0.8144137118503736  0.5667500663831455  0.5736725798080711
  0.0584433008265324  0.8108335250569264  0.5614997348490647
  0.3254921554312217  0.8025760492109725  0.5580787436927084
  0.5535126495050227  0.8177686960668411  0.5666638222929855
  0.8045174356132523  0.8065862819870733  0.5690886579249168
  0.0610221184978937  0.0657562435426978  0.8128675822284226
  0.2984064109083037  0.0617416404409363  0.8176911445599454
  0.5703689181448345  0.0553561243170227  0.8163753428181585
  0.8078589094800837  0.0642431800926659  0.8172429008962970
  0.0548170312883033  0.3312140046373499  0.8079754675521394
  0.3075259805280963  0.3184705904765054  0.8121142177813181
  0.5558958111738787  0.3244173894021370  0.8059832402766642
  0.8160765957879723  0.3245524753876253  0.8100150453497627
  0.0677035058214858  0.5590295164904896  0.8068516136428301
  0.3098112516207675  0.5584484003865727  0.8182736663840787
  0.5526925565094316  0.5717156562362555  0.8218451403119824
  0.8099907891523007  0.5671788016030158  0.8122779543909920
  0.0644553696109409  0.8103272632715004  0.8096615533089829
  0.3139304131893861  0.8130874196831908  0.8088593825771576
  0.5698691275309928  0.8099086887861995  0.8092736218599813
  0.8207827959672417  0.8151027258779682  0.8026167674948784
