kk                                      
   1.00000000000000     
     0.0000000000000000   10.9373336906932952   10.9373336906932952
    10.9373336906932952    0.0000000000000000   10.9373336906932952
    10.9373336906932952   10.9373336906932952    0.0000000000000000
   Si
   128
Direct
  0.0078591307552074  0.9984182831619890  0.9953372086219403
  0.2576059456657873  0.9899748787839187  0.9940606397084935
  0.5033810638063514  0.9960036590597099  0.0057691952516592
  0.7569512259147686  0.0032907955899972  0.9951123016436441
  0.9946726766442779  0.2533453297379751  0.0033322704071495
  0.2486160007108751  0.2420897276964169  0.9960305589932403
  0.5025515202919166  0.2491547708404624  0.9981874114961897
  0.7491965788119117  0.2513599451241149  0.0056998847662300
  0.0085353347123558  0.5049982926536387  0.9910544046168681
  0.2476246926471504  0.5041928592669009  0.9931500613376869
  0.5007513734868567  0.4976318856497812  0.0013098136544087
  0.7562690801525775  0.5017220619260954  0.9946362216806790
  0.0078326880136714  0.7457717451166772  0.0034839006842944
  0.2513955525307381  0.7545487151436276  0.9945667596356458
  0.5062281310273349  0.7545597220484055  0.9900980928378331
  0.7482993757204923  0.7572639172644031  0.9904407754618703
  0.0099985722872802  0.9969364358130903  0.2448485444860538
  0.2582264061192134  0.9870296876881852  0.2528402095310369
  0.5114913737778437  0.9945848358646359  0.2476612081563445
  0.7516448230208752  0.9931366432796835  0.2460977867398242
  0.0067059870339392  0.2649346327270052  0.2371291946357275
  0.2613821750035754  0.2509586101755943  0.2460757787080681
  0.4969218503371380  0.2455275102876797  0.2513472099240062
  0.7662011046241162  0.2465306314671878  0.2521863070459318
  0.9994569395858548  0.4990671814688170  0.2449066221622900
  0.2525943160819608  0.5023682406062875  0.2413347937691981
  0.5058723116593953  0.4945771138679476  0.2498316066771267
  0.7462978769904893  0.4966509216651929  0.2520314516877917
  0.9944471888293265  0.7495951120163298  0.2547581391056966
  0.2342089806349463  0.7568947088997930  0.2500790125335044
  0.4990339985284962  0.7495323315587470  0.2500428977567708
  0.7470115481999002  0.7500120797198235  0.2436661049473088
  0.9954913684940365  0.0040578066885004  0.5001249674401222
  0.2450679883485449  0.0003386563605972  0.5104259682537275
  0.4961663992962357  0.0075590476833014  0.5041594788472636
  0.7495191048823102  0.9967014442974147  0.5060144878524326
  0.0014295055962137  0.2447633487563152  0.4912002407473821
  0.2456653964110060  0.2501723266990084  0.5015328868701232
  0.5025126882317252  0.2523072097476486  0.4959342084170544
  0.7467255345730521  0.2560095408480123  0.5039780048284754
  0.9947725330727906  0.5076586639923946  0.4970521037025719
  0.2558916236125555  0.5002347768266020  0.4942014786859872
  0.4945099831445390  0.5018776622884218  0.4977131011398441
  0.7572287730231224  0.5015010844405765  0.4998674463449220
  0.9946262361922109  0.7484181406902550  0.5024612972166267
  0.2560956396385521  0.7641803183963916  0.4891107198143345
  0.4988061287542820  0.7410326687297086  0.5047930568261663
  0.7544169278307677  0.7413204227877372  0.5022146929132703
  0.9952747812707514  0.0035482142502374  0.7464775840071312
  0.2423224922902207  0.0013865808650237  0.7592237005414404
  0.5019283848730254  0.9941987660001317  0.7623763856633659
  0.7487740131419756  0.0028698145028443  0.7409562581567073
  0.9994742507772614  0.2433566356677588  0.7508905088305511
  0.2456139313361874  0.2569655316300583  0.7530683644824805
  0.5057091375674077  0.2482080468857077  0.7422603902847555
  0.7559250222150666  0.2507065214610122  0.7501187278226382
  0.0000218540673842  0.5050561914433018  0.7414600990378375
  0.2412860933506309  0.5011017344764994  0.7534456331801849
  0.4962738504589055  0.5055142634740193  0.7474702725724001
  0.7425291031312966  0.5077610833409949  0.7420351612547620
  0.9976329734085070  0.7469464984255865  0.7566051180204028
  0.2549340368252686  0.7576409730854792  0.7444073616107829
  0.5004111385914811  0.7541365668319244  0.7632165529636339
  0.7478319108156697  0.7506197267723849  0.7571407543759037
  0.0615481793367394  0.0675639875631404  0.0704698455446504
  0.2995529921094118  0.0601357390375057  0.0687996587576549
  0.5802158353531652  0.0564928731782004  0.0575328069508458
  0.8191051405202145  0.0534564995023317  0.0594199344028752
  0.0563996793751684  0.3075228659301388  0.0650669101621091
  0.3231474646288959  0.3114050662146113  0.0566926759512256
  0.5710918764347852  0.3041695797690451  0.0618366270048796
  0.8163177628171994  0.3016325755360114  0.0703923303783256
  0.0671009539229246  0.5603839661676275  0.0525207253117088
  0.3100043219530519  0.5549840214685631  0.0673288534606158
  0.5601845563713468  0.5691823231585715  0.0612125785091138
  0.8105442741062774  0.5621173023493071  0.0620468779825032
  0.0609878120498948  0.8220290773611367  0.0616573716225659
  0.3030830573730441  0.8116945004550757  0.0655541192432381
  0.5622988968682066  0.8121917821981199  0.0709554475981093
  0.8205849762829658  0.8135581706704116  0.0625229198380381
  0.0576783108567369  0.0559242679005720  0.3175065503974110
  0.3190824727423589  0.0578671684950223  0.3174971324771221
  0.5646299960225534  0.0561064133060540  0.3091136563901316
  0.8120556325377564  0.0621784650316926  0.3246587090460054
  0.0716131547017156  0.3148261819164802  0.3027488562796279
  0.3047766526551214  0.3080957574423380  0.3247820385674558
  0.5633596892403929  0.3082329916742665  0.3140160061855326
  0.8090014004451120  0.3189374557369504  0.3166049118562739
  0.0523493098856420  0.5732700378292321  0.3067233705943337
  0.3243208784307399  0.5573441970592228  0.3057258835217951
  0.5648388625846010  0.5634113252757089  0.3225756424337760
  0.8106719932567472  0.5621381587611722  0.3167293760615095
  0.0631193755727395  0.8201010744058834  0.3128695884860235
  0.3094192154533246  0.8135325125826185  0.3101760731956063
  0.5693169352575040  0.8096292709219526  0.3089613553125972
  0.8128299565968504  0.8045458181933611  0.3242994996633399
  0.0652451616888641  0.0642800093798002  0.5610593849744774
  0.3168471029299553  0.0671035741911439  0.5693809599743744
  0.5557825043706970  0.0691493578046121  0.5613602600899199
  0.8061334835063931  0.0701867567252208  0.5561867589474048
  0.0678700400659054  0.2982270943278778  0.5631730587950230
  0.3144652746531733  0.3180414645467593  0.5586002464904141
  0.5684942455454376  0.3032529498719185  0.5590506860229141
  0.8130462864392172  0.3116499911768358  0.5506178059198135
  0.0719692833822876  0.5519356522946026  0.5707789205017164
  0.3087844415532786  0.5614253857048794  0.5543559149149146
  0.5637789155572364  0.5622956081867514  0.5598933116960296
  0.8145271431122652  0.5688851360257274  0.5639040596442868
  0.0609386908409348  0.8049434356097152  0.5657096411563671
  0.3013448534848564  0.8186597917370761  0.5657168891472892
  0.5642127251074740  0.8104544554464894  0.5576265051593268
  0.8144713619457420  0.8022584235610424  0.5646863651684484
  0.0581689126911726  0.0660409938533135  0.8067951257763610
  0.3262818335470357  0.0565988066532199  0.8052660862235044
  0.5728644408773818  0.0519162447879964  0.8076944868054454
  0.8076544677463318  0.0618535208044761  0.8054780826842034
  0.0708931530531061  0.3172890935178074  0.8027248540789458
  0.3200218529682886  0.3139398190651974  0.8196515532873647
  0.5596329514318086  0.2986416639763121  0.8278074857984450
  0.8055129871467628  0.3134918193375640  0.8156429451246794
  0.0707596005970785  0.5534711709311111  0.8161167301860459
  0.3182374853198908  0.5569999504695815  0.8136118777243055
  0.5633085734758652  0.5629660425381715  0.8085709992261201
  0.8093776460910860  0.5675743906757802  0.8100383221162772
  0.0738803095183798  0.8036128931868802  0.8067292561911330
  0.3119784921704465  0.8088672823025647  0.8158421532229241
  0.5575394425961520  0.8218944590195107  0.8090683258772913
  0.8062678487572299  0.8156596312977626  0.8109963873828363
 
  0.00000000E+00  0.00000000E+00  0.00000000E+00
  0.00000000E+00  0.00000000E+00  0.00000000E+00
  0.00000000E+00  0.00000000E+00  0.00000000E+00
  0.00000000E+00  0.00000000E+00  0.00000000E+00
  0.00000000E+00  0.00000000E+00  0.00000000E+00
  0.00000000E+00  0.00000000E+00  0.00000000E+00
  0.00000000E+00  0.00000000E+00  0.00000000E+00
  0.00000000E+00  0.00000000E+00  0.00000000E+00
  0.00000000E+00  0.00000000E+00  0.00000000E+00
  0.00000000E+00  0.00000000E+00  0.00000000E+00
  0.00000000E+00  0.00000000E+00  0.00000000E+00
  0.00000000E+00  0.00000000E+00  0.00000000E+00
  0.00000000E+00  0.00000000E+00  0.00000000E+00
  0.00000000E+00  0.00000000E+00  0.00000000E+00
  0.00000000E+00  0.00000000E+00  0.00000000E+00
  0.00000000E+00  0.00000000E+00  0.00000000E+00
  0.00000000E+00  0.00000000E+00  0.00000000E+00
  0.00000000E+00  0.00000000E+00  0.00000000E+00
  0.00000000E+00  0.00000000E+00  0.00000000E+00
  0.00000000E+00  0.00000000E+00  0.00000000E+00
  0.00000000E+00  0.00000000E+00  0.00000000E+00
  0.00000000E+00  0.00000000E+00  0.00000000E+00
  0.00000000E+00  0.00000000E+00  0.00000000E+00
  0.00000000E+00  0.00000000E+00  0.00000000E+00
  0.00000000E+00  0.00000000E+00  0.00000000E+00
  0.00000000E+00  0.00000000E+00  0.00000000E+00
  0.00000000E+00  0.00000000E+00  0.00000000E+00
  0.00000000E+00  0.00000000E+00  0.00000000E+00
  0.00000000E+00  0.00000000E+00  0.00000000E+00
  0.00000000E+00  0.00000000E+00  0.00000000E+00
  0.00000000E+00  0.00000000E+00  0.00000000E+00
  0.00000000E+00  0.00000000E+00  0.00000000E+00
  0.00000000E+00  0.00000000E+00  0.00000000E+00
  0.00000000E+00  0.00000000E+00  0.00000000E+00
  0.00000000E+00  0.00000000E+00  0.00000000E+00
  0.00000000E+00  0.00000000E+00  0.00000000E+00
  0.00000000E+00  0.00000000E+00  0.00000000E+00
  0.00000000E+00  0.00000000E+00  0.00000000E+00
  0.00000000E+00  0.00000000E+00  0.00000000E+00
  0.00000000E+00  0.00000000E+00  0.00000000E+00
  0.00000000E+00  0.00000000E+00  0.00000000E+00
  0.00000000E+00  0.00000000E+00  0.00000000E+00
  0.00000000E+00  0.00000000E+00  0.00000000E+00
  0.00000000E+00  0.00000000E+00  0.00000000E+00
  0.00000000E+00  0.00000000E+00  0.00000000E+00
  0.00000000E+00  0.00000000E+00  0.00000000E+00
  0.00000000E+00  0.00000000E+00  0.00000000E+00
  0.00000000E+00  0.00000000E+00  0.00000000E+00
  0.00000000E+00  0.00000000E+00  0.00000000E+00
  0.00000000E+00  0.00000000E+00  0.00000000E+00
  0.00000000E+00  0.00000000E+00  0.00000000E+00
  0.00000000E+00  0.00000000E+00  0.00000000E+00
  0.00000000E+00  0.00000000E+00  0.00000000E+00
  0.00000000E+00  0.00000000E+00  0.00000000E+00
  0.00000000E+00  0.00000000E+00  0.00000000E+00
  0.00000000E+00  0.00000000E+00  0.00000000E+00
  0.00000000E+00  0.00000000E+00  0.00000000E+00
  0.00000000E+00  0.00000000E+00  0.00000000E+00
  0.00000000E+00  0.00000000E+00  0.00000000E+00
  0.00000000E+00  0.00000000E+00  0.00000000E+00
  0.00000000E+00  0.00000000E+00  0.00000000E+00
  0.00000000E+00  0.00000000E+00  0.00000000E+00
  0.00000000E+00  0.00000000E+00  0.00000000E+00
  0.00000000E+00  0.00000000E+00  0.00000000E+00
  0.00000000E+00  0.00000000E+00  0.00000000E+00
  0.00000000E+00  0.00000000E+00  0.00000000E+00
  0.00000000E+00  0.00000000E+00  0.00000000E+00
  0.00000000E+00  0.00000000E+00  0.00000000E+00
  0.00000000E+00  0.00000000E+00  0.00000000E+00
  0.00000000E+00  0.00000000E+00  0.00000000E+00
  0.00000000E+00  0.00000000E+00  0.00000000E+00
  0.00000000E+00  0.00000000E+00  0.00000000E+00
  0.00000000E+00  0.00000000E+00  0.00000000E+00
  0.00000000E+00  0.00000000E+00  0.00000000E+00
  0.00000000E+00  0.00000000E+00  0.00000000E+00
  0.00000000E+00  0.00000000E+00  0.00000000E+00
  0.00000000E+00  0.00000000E+00  0.00000000E+00
  0.00000000E+00  0.00000000E+00  0.00000000E+00
  0.00000000E+00  0.00000000E+00  0.00000000E+00
  0.00000000E+00  0.00000000E+00  0.00000000E+00
  0.00000000E+00  0.00000000E+00  0.00000000E+00
  0.00000000E+00  0.00000000E+00  0.00000000E+00
  0.00000000E+00  0.00000000E+00  0.00000000E+00
  0.00000000E+00  0.00000000E+00  0.00000000E+00
  0.00000000E+00  0.00000000E+00  0.00000000E+00
  0.00000000E+00  0.00000000E+00  0.00000000E+00
  0.00000000E+00  0.00000000E+00  0.00000000E+00
  0.00000000E+00  0.00000000E+00  0.00000000E+00
  0.00000000E+00  0.00000000E+00  0.00000000E+00
  0.00000000E+00  0.00000000E+00  0.00000000E+00
  0.00000000E+00  0.00000000E+00  0.00000000E+00
  0.00000000E+00  0.00000000E+00  0.00000000E+00
  0.00000000E+00  0.00000000E+00  0.00000000E+00
  0.00000000E+00  0.00000000E+00  0.00000000E+00
  0.00000000E+00  0.00000000E+00  0.00000000E+00
  0.00000000E+00  0.00000000E+00  0.00000000E+00
  0.00000000E+00  0.00000000E+00  0.00000000E+00
  0.00000000E+00  0.00000000E+00  0.00000000E+00
  0.00000000E+00  0.00000000E+00  0.00000000E+00
  0.00000000E+00  0.00000000E+00  0.00000000E+00
  0.00000000E+00  0.00000000E+00  0.00000000E+00
  0.00000000E+00  0.00000000E+00  0.00000000E+00
  0.00000000E+00  0.00000000E+00  0.00000000E+00
  0.00000000E+00  0.00000000E+00  0.00000000E+00
  0.00000000E+00  0.00000000E+00  0.00000000E+00
  0.00000000E+00  0.00000000E+00  0.00000000E+00
  0.00000000E+00  0.00000000E+00  0.00000000E+00
  0.00000000E+00  0.00000000E+00  0.00000000E+00
  0.00000000E+00  0.00000000E+00  0.00000000E+00
  0.00000000E+00  0.00000000E+00  0.00000000E+00
  0.00000000E+00  0.00000000E+00  0.00000000E+00
  0.00000000E+00  0.00000000E+00  0.00000000E+00
  0.00000000E+00  0.00000000E+00  0.00000000E+00
  0.00000000E+00  0.00000000E+00  0.00000000E+00
  0.00000000E+00  0.00000000E+00  0.00000000E+00
  0.00000000E+00  0.00000000E+00  0.00000000E+00
  0.00000000E+00  0.00000000E+00  0.00000000E+00
  0.00000000E+00  0.00000000E+00  0.00000000E+00
  0.00000000E+00  0.00000000E+00  0.00000000E+00
  0.00000000E+00  0.00000000E+00  0.00000000E+00
  0.00000000E+00  0.00000000E+00  0.00000000E+00
  0.00000000E+00  0.00000000E+00  0.00000000E+00
  0.00000000E+00  0.00000000E+00  0.00000000E+00
  0.00000000E+00  0.00000000E+00  0.00000000E+00
  0.00000000E+00  0.00000000E+00  0.00000000E+00
  0.00000000E+00  0.00000000E+00  0.00000000E+00
  0.00000000E+00  0.00000000E+00  0.00000000E+00
  0.00000000E+00  0.00000000E+00  0.00000000E+00
