kk
 1.0000000000000000
     0.0000000000000000   10.9373336906932952   10.9373336906932952
    10.9373336906932952    0.0000000000000000   10.9373336906932952
    10.9373336906932952   10.9373336906932952    0.0000000000000000
 128
Direct
  0.0078591307552085  0.9984182831619874  0.9953372086219414
  0.2576059456657846  0.9899748787839152  0.9940606397084923
  0.5033810638063484  0.9960036590597089  0.0057691952516584
  0.7569512259147716  0.0032907955899973  0.9951123016436437
  0.9946726766442759  0.2533453297379729  0.0033322704071498
  0.2486160007108739  0.2420897276964181  0.9960305589932434
  0.5025515202919150  0.2491547708404637  0.9981874114961895
  0.7491965788119130  0.2513599451241164  0.0056998847662279
  0.0085353347123589  0.5049982926536410  0.9910544046168702
  0.2476246926471469  0.5041928592669026  0.9931500613376876
  0.5007513734868582  0.4976318856497786  0.0013098136544106
  0.7562690801525744  0.5017220619260946  0.9946362216806777
  0.0078326880136711  0.7457717451166793  0.0034839006842947
  0.2513955525307378  0.7545487151436260  0.9945667596356473
  0.5062281310273316  0.7545597220484066  0.9900980928378303
  0.7482993757204925  0.7572639172644000  0.9904407754618724
  0.0099985722872820  0.9969364358130876  0.2448485444860524
  0.2582264061192122  0.9870296876881877  0.2528402095310390
  0.5114913737778437  0.9945848358646390  0.2476612081563456
  0.7516448230208772  0.9931366432796817  0.2460977867398207
  0.0067059870339416  0.2649346327270032  0.2371291946357246
  0.2613821750035758  0.2509586101755963  0.2460757787080673
  0.4969218503371354  0.2455275102876800  0.2513472099240083
  0.7662011046241135  0.2465306314671909  0.2521863070459308
  0.9994569395858539  0.4990671814688197  0.2449066221622899
  0.2525943160819633  0.5023682406062886  0.2413347937691949
  0.5058723116593979  0.4945771138679473  0.2498316066771295
  0.7462978769904861  0.4966509216651933  0.2520314516877932
  0.9944471888293235  0.7495951120163291  0.2547581391056932
  0.2342089806349478  0.7568947088997909  0.2500790125335053
  0.4990339985284977  0.7495323315587459  0.2500428977567724
  0.7470115481999021  0.7500120797198210  0.2436661049473053
  0.9954913684940395  0.0040578066884994  0.5001249674401227
  0.2450679883485443  0.0003386563605941  0.5104259682537275
  0.4961663992962369  0.0075590476832995  0.5041594788472651
  0.7495191048823115  0.9967014442974116  0.5060144878524323
  0.0014295055962145  0.2447633487563155  0.4912002407473797
  0.2456653964110030  0.2501723266990062  0.5015328868701225
  0.5025126882317277  0.2523072097476492  0.4959342084170562
  0.7467255345730550  0.2560095408480133  0.5039780048284761
  0.9947725330727890  0.5076586639923965  0.4970521037025696
  0.2558916236125547  0.5002347768266050  0.4942014786859871
  0.4945099831445411  0.5018776622884220  0.4977131011398447
  0.7572287730231256  0.5015010844405747  0.4998674463449186
  0.9946262361922088  0.7484181406902579  0.5024612972166267
  0.2560956396385495  0.7641803183963882  0.4891107198143353
  0.4988061287542834  0.7410326687297066  0.5047930568261659
  0.7544169278307700  0.7413204227877374  0.5022146929132733
  0.9952747812707482  0.0035482142502342  0.7464775840071327
  0.2423224922902182  0.0013865808650243  0.7592237005414371
  0.5019283848730274  0.9941987660001327  0.7623763856633688
  0.7487740131419743  0.0028698145028439  0.7409562581567068
  0.9994742507772628  0.2433566356677597  0.7508905088305524
  0.2456139313361863  0.2569655316300549  0.7530683644824839
  0.5057091375674082  0.2482080468857060  0.7422603902847540
  0.7559250222150634  0.2507065214610151  0.7501187278226401
  0.0000218540673854  0.5050561914433008  0.7414600990378347
  0.2412860933506313  0.5011017344765001  0.7534456331801825
  0.4962738504589085  0.5055142634740194  0.7474702725724010
  0.7425291031312941  0.5077610833409932  0.7420351612547611
  0.9976329734085103  0.7469464984255856  0.7566051180204036
  0.2549340368252651  0.7576409730854778  0.7444073616107849
  0.5004111385914835  0.7541365668319235  0.7632165529636346
  0.7478319108156710  0.7506197267723823  0.7571407543759046
  0.0615481793367397  0.0675639875631416  0.0704698455446507
  0.2995529921094152  0.0601357390375065  0.0687996587576536
  0.5802158353531683  0.0564928731781981  0.0575328069508444
  0.8191051405202141  0.0534564995023339  0.0594199344028759
  0.0563996793751655  0.3075228659301406  0.0650669101621105
  0.3231474646288942  0.3114050662146091  0.0566926759512247
  0.5710918764347871  0.3041695797690435  0.0618366270048766
  0.8163177628171973  0.3016325755360143  0.0703923303783229
  0.0671009539229211  0.5603839661676253  0.0525207253117062
  0.3100043219530503  0.5549840214685621  0.0673288534606147
  0.5601845563713441  0.5691823231585693  0.0612125785091122
  0.8105442741062791  0.5621173023493039  0.0620468779825049
  0.0609878120498934  0.8220290773611354  0.0616573716225658
  0.3030830573730430  0.8116945004550732  0.0655541192432392
  0.5622988968682088  0.8121917821981204  0.0709554475981058
  0.8205849762829681  0.8135581706704145  0.0625229198380402
  0.0576783108567334  0.0559242679005728  0.3175065503974105
  0.3190824727423584  0.0578671684950199  0.3174971324771213
  0.5646299960225507  0.0561064133060505  0.3091136563901285
  0.8120556325377571  0.0621784650316899  0.3246587090460089
  0.0716131547017135  0.3148261819164801  0.3027488562796280
  0.3047766526551223  0.3080957574423364  0.3247820385674550
  0.5633596892403901  0.3082329916742639  0.3140160061855354
  0.8090014004451086  0.3189374557369481  0.3166049118562740
  0.0523493098856408  0.5732700378292291  0.3067233705943304
  0.3243208784307396  0.5573441970592262  0.3057258835217918
  0.5648388625845996  0.5634113252757070  0.3225756424337768
  0.8106719932567497  0.5621381587611707  0.3167293760615105
  0.0631193755727392  0.8201010744058806  0.3128695884860224
  0.3094192154533273  0.8135325125826219  0.3101760731956069
  0.5693169352575030  0.8096292709219509  0.3089613553125948
  0.8128299565968531  0.8045458181933639  0.3242994996633434
  0.0652451616888638  0.0642800093797994  0.5610593849744756
  0.3168471029299575  0.0671035741911445  0.5693809599743763
  0.5557825043706996  0.0691493578046141  0.5613602600899208
  0.8061334835063900  0.0701867567252221  0.5561867589474051
  0.0678700400659057  0.2982270943278796  0.5631730587950223
  0.3144652746531741  0.3180414645467627  0.5586002464904127
  0.5684942455454398  0.3032529498719160  0.5590506860229160
  0.8130462864392182  0.3116499911768374  0.5506178059198127
  0.0719692833822893  0.5519356522946037  0.5707789205017170
  0.3087844415532775  0.5614253857048823  0.5543559149149149
  0.5637789155572331  0.5622956081867496  0.5598933116960302
  0.8145271431122664  0.5688851360257263  0.5639040596442857
  0.0609386908409370  0.8049434356097174  0.5657096411563658
  0.3013448534848593  0.8186597917370739  0.5657168891472892
  0.5642127251074772  0.8104544554464891  0.5576265051593243
  0.8144713619457391  0.8022584235610423  0.5646863651684453
  0.0581689126911703  0.0660409938533148  0.8067951257763621
  0.3262818335470325  0.0565988066532193  0.8052660862235025
  0.5728644408773829  0.0519162447879937  0.8076944868054426
  0.8076544677463339  0.0618535208044746  0.8054780826842015
  0.0708931530531054  0.3172890935178089  0.8027248540789450
  0.3200218529682884  0.3139398190651999  0.8196515532873623
  0.5596329514318091  0.2986416639763155  0.8278074857984459
  0.8055129871467618  0.3134918193375629  0.8156429451246764
  0.0707596005970811  0.5534711709311078  0.8161167301860464
  0.3182374853198898  0.5569999504695810  0.8136118777243039
  0.5633085734758683  0.5629660425381736  0.8085709992261225
  0.8093776460910888  0.5675743906757772  0.8100383221162747
  0.0738803095183813  0.8036128931868770  0.8067292561911356
  0.3119784921704443  0.8088672823025626  0.8158421532229260
  0.5575394425961507  0.8218944590195127  0.8090683258772891
  0.8062678487572327  0.8156596312977645  0.8109963873828377
