kk                                      
   1.00000000000000     
     0.0000000000000000   10.9373336906932952   10.9373336906932952
    10.9373336906932952    0.0000000000000000   10.9373336906932952
    10.9373336906932952   10.9373336906932952    0.0000000000000000
   Si
   128
Direct
  0.9937634254098171  0.0006344421457740  0.0026370011450823
  0.2435460114057193  0.0111427972767544  0.9962669895820824
  0.4949598329027296  0.0029565025322427  0.0097024602803941
  0.7502641277834385  0.0052446690298069  0.9934127803194315
  0.9941561197272861  0.2517903090090812  0.0036271450033993
  0.2597261386072489  0.2613209650337822  0.9831856123350917
  0.5011768990254950  0.2449089628197285  0.0004234488738604
  0.7590033393239821  0.2460324474359794  0.9968655303133644
  0.0133486568660501  0.4927982111084361  0.9913521195745787
  0.2493616747541694  0.4999233168250683  0.0042548677610839
  0.5016424241505746  0.4928653657491040  0.9939565692494838
  0.7512673688322806  0.5147042739370704  0.9984730166553817
  0.0024982027579554  0.7511346168070787  0.9995962309953867
  0.2471128171907253  0.7591411231751550  0.9978995839479552
  0.5020567017837081  0.7557231139100367  0.9950457186700490
  0.7525524223965050  0.7371540996090999  0.0112702327296859
  0.0073576264299291  0.0039557254706537  0.2423235047626733
  0.2578697020929255  0.9954314785174248  0.2563913846595511
  0.5104332805901421  0.9996572326953270  0.2484145319109601
  0.7491740451518538  0.9931245550106240  0.2391696040208586
  0.0048757144069853  0.2545532873063152  0.2425710895565203
  0.2442199410298542  0.2500728343574039  0.2497186525136073
  0.5073036517210454  0.2462923858974335  0.2375140732365395
  0.7491534799789008  0.2548977080520913  0.2498429483232059
  0.9947628113767308  0.5002342383299023  0.2554696556820701
  0.2543888635703695  0.4862686933778377  0.2607292661941187
  0.5095315893092049  0.4853165459530331  0.2432890915137236
  0.7430445820367595  0.5113693210017871  0.2436923104701805
  0.0069268788465564  0.7359814872694983  0.2606217213230835
  0.2533666495658125  0.7583421035997375  0.2452723598497997
  0.5114380223483934  0.7450997365441836  0.2604245282572180
  0.7541411099153308  0.7489837912547159  0.2382526171417680
  0.0156171340556241  0.9966387195552358  0.4932700205343608
  0.2515062015723259  0.0007161003278071  0.5027385273461675
  0.4915821886025498  0.0088022599450639  0.4921815219029497
  0.7608579689689705  0.9922900514050497  0.5071588669339420
  0.9982452748223025  0.2532513824468339  0.4932493786280503
  0.2500824716482839  0.2607639296325033  0.4968303979484503
  0.4973491525361027  0.2561377971470691  0.5002167308135128
  0.7466970661009853  0.2533852513631274  0.4877699527926964
  0.0034720874383609  0.5002464574204453  0.5033722174877155
  0.2661361379820306  0.4769289185907937  0.4920503290041225
  0.4922998073289619  0.4963833025211599  0.5034341428697431
  0.7605564030381373  0.4921195445004045  0.4930371736100412
  0.9991884119705077  0.7451147994741234  0.4968509670325076
  0.2428456697187968  0.7533252245027029  0.5006264615159708
  0.4962840308076792  0.7390606896263137  0.5170403452988737
  0.7682362105859895  0.7397705397372718  0.4963421888626982
  0.9911917942890369  0.0022788933082509  0.7387828415437667
  0.2544717073862302  0.0104586109648324  0.7433332143398914
  0.5015602908571566  0.0002488923513297  0.7338185117358265
  0.7486840746761771  0.9941003358216776  0.7563600171517848
  0.0023424276987924  0.2396029429108424  0.7514310255847505
  0.2456905204186981  0.2479494523950194  0.7538231305282608
  0.4932220999652017  0.2542503418753981  0.7481419380382519
  0.7603437544553131  0.2488044856919416  0.7437319386824512
  0.0016962372065450  0.5010402526414097  0.7545355119124011
  0.2526844416440639  0.4947874319096002  0.7539083887246676
  0.4895652266918162  0.5137861592674398  0.7526649725478123
  0.7485748121848772  0.4976019043954025  0.7557175439229695
  0.9934447515789984  0.7653958010559094  0.7487177454443170
  0.2517109065268883  0.7507693784335174  0.7430501324565810
  0.5048680766484068  0.7472787136307772  0.7454427787841738
  0.7533496340893180  0.7636575005272519  0.7482077439883099
  0.0680203151443664  0.0602611009537384  0.0634570051451107
  0.3050423971016656  0.0536977444669944  0.0756873978363970
  0.5647079150695689  0.0625181097678293  0.0702662548657713
  0.8123377075944589  0.0717372074286189  0.0560325057379529
  0.0728173867648678  0.3196988339510369  0.0501674816124265
  0.3068599685415379  0.3196716540458695  0.0649195279328438
  0.5695521229029836  0.3201323856544533  0.0701458950979514
  0.8049245561442149  0.3132167646803694  0.0662502549710240
  0.0675549223453586  0.5606682325437689  0.0612733745600735
  0.3073488685060752  0.5597996060017607  0.0652136679321487
  0.5550791308925014  0.5587470233253313  0.0655341683281634
  0.8181379426256683  0.5577853242542901  0.0618662432810098
  0.0617966181056886  0.8168500962219198  0.0598790014381265
  0.3212067086075479  0.8224900776227528  0.0512100575504633
  0.5651384531533594  0.8116140326581274  0.0623683195167786
  0.8213413643049776  0.8233413912593832  0.0446446864911607
  0.0559640326609951  0.0759299046974888  0.3094301868423841
  0.3002120461603468  0.0743737985625756  0.3138882406011660
  0.5687383801210686  0.0680233547830653  0.3094916589234629
  0.8098991248450105  0.0562589562103000  0.3156654657280669
  0.0614123333974561  0.3221280655641863  0.3128406348012831
  0.3224100190591059  0.3208758146156541  0.2978494896020933
  0.5617879731427777  0.3069770489486388  0.3173466263172315
  0.8121692660450250  0.3119107548056803  0.3090835182305725
  0.0551967228673789  0.5623098664766175  0.3094360904791387
  0.3271034994799820  0.5575632435726874  0.3023340855288055
  0.5662121578068309  0.5618033517800427  0.3088631575293590
  0.8154365537775590  0.5695751914491041  0.2987983574452571
  0.0549422270837283  0.8083579701368464  0.3137261379417424
  0.3101287816928178  0.8059245400150132  0.3154084827732788
  0.5680343216782333  0.8073558571087673  0.3259574737134372
  0.8188474119411069  0.8166711738838970  0.2981725029672617
  0.0613171314179439  0.0704821332947461  0.5520814825277398
  0.3076511523500685  0.0586483848707999  0.5663088236347491
  0.5674869899694741  0.0652717776823124  0.5549776779734046
  0.8145605418339130  0.0752390217607299  0.5521049803147093
  0.0439585670724014  0.3050889038546316  0.5694864525355641
  0.3249364458387731  0.2975291875764015  0.5659261494360024
  0.5440053365041706  0.3176263293514126  0.5696454672154374
  0.8217537318035468  0.3171283003044536  0.5561839638849335
  0.0625697778834748  0.5722535403711078  0.5702360251975236
  0.3104076135670226  0.5698078608451667  0.5570098582624539
  0.5653429621346930  0.5535734141586772  0.5583682141745925
  0.7970965913945989  0.5586311049603836  0.5714692878956171
  0.0612439586184195  0.8075597417110743  0.5643605063494590
  0.3081015156800859  0.8135346383635138  0.5564408811915840
  0.5890838380244432  0.8086603509630024  0.5448945482650203
  0.8142645589028845  0.8055405072235970  0.5678779534366356
  0.0635637659042487  0.0523771025502668  0.8242101661891468
  0.3008840028147404  0.0796486965556653  0.8066766787493762
  0.5640514694836511  0.0718382714815462  0.7972832478036622
  0.8147737764463585  0.0520974085148609  0.8143855203647306
  0.0615789606062975  0.3225026674082301  0.8086658907458499
  0.3095518534254680  0.3202539393423152  0.8095481536518960
  0.5641980849536310  0.3145215386067051  0.8162501566443865
  0.8063396890049717  0.3081848047984721  0.8171887769540334
  0.0562103026341703  0.5737959040321385  0.8087421565047208
  0.3072637123003545  0.5626589475536150  0.8244001610856060
  0.5655142330915979  0.5530746474380592  0.8184054469343707
  0.8209568399706768  0.5535333002300291  0.8092375538112435
  0.0653876285091286  0.8119630908449906  0.8180269045208135
  0.3199269919810988  0.8165493368438135  0.8019631104367946
  0.5668797080448797  0.8129421280453215  0.8070589828691226
  0.8202580236626886  0.8119462767288539  0.8146220603967507
 
  0.00000000E+00  0.00000000E+00  0.00000000E+00
  0.00000000E+00  0.00000000E+00  0.00000000E+00
  0.00000000E+00  0.00000000E+00  0.00000000E+00
  0.00000000E+00  0.00000000E+00  0.00000000E+00
  0.00000000E+00  0.00000000E+00  0.00000000E+00
  0.00000000E+00  0.00000000E+00  0.00000000E+00
  0.00000000E+00  0.00000000E+00  0.00000000E+00
  0.00000000E+00  0.00000000E+00  0.00000000E+00
  0.00000000E+00  0.00000000E+00  0.00000000E+00
  0.00000000E+00  0.00000000E+00  0.00000000E+00
  0.00000000E+00  0.00000000E+00  0.00000000E+00
  0.00000000E+00  0.00000000E+00  0.00000000E+00
  0.00000000E+00  0.00000000E+00  0.00000000E+00
  0.00000000E+00  0.00000000E+00  0.00000000E+00
  0.00000000E+00  0.00000000E+00  0.00000000E+00
  0.00000000E+00  0.00000000E+00  0.00000000E+00
  0.00000000E+00  0.00000000E+00  0.00000000E+00
  0.00000000E+00  0.00000000E+00  0.00000000E+00
  0.00000000E+00  0.00000000E+00  0.00000000E+00
  0.00000000E+00  0.00000000E+00  0.00000000E+00
  0.00000000E+00  0.00000000E+00  0.00000000E+00
  0.00000000E+00  0.00000000E+00  0.00000000E+00
  0.00000000E+00  0.00000000E+00  0.00000000E+00
  0.00000000E+00  0.00000000E+00  0.00000000E+00
  0.00000000E+00  0.00000000E+00  0.00000000E+00
  0.00000000E+00  0.00000000E+00  0.00000000E+00
  0.00000000E+00  0.00000000E+00  0.00000000E+00
  0.00000000E+00  0.00000000E+00  0.00000000E+00
  0.00000000E+00  0.00000000E+00  0.00000000E+00
  0.00000000E+00  0.00000000E+00  0.00000000E+00
  0.00000000E+00  0.00000000E+00  0.00000000E+00
  0.00000000E+00  0.00000000E+00  0.00000000E+00
  0.00000000E+00  0.00000000E+00  0.00000000E+00
  0.00000000E+00  0.00000000E+00  0.00000000E+00
  0.00000000E+00  0.00000000E+00  0.00000000E+00
  0.00000000E+00  0.00000000E+00  0.00000000E+00
  0.00000000E+00  0.00000000E+00  0.00000000E+00
  0.00000000E+00  0.00000000E+00  0.00000000E+00
  0.00000000E+00  0.00000000E+00  0.00000000E+00
  0.00000000E+00  0.00000000E+00  0.00000000E+00
  0.00000000E+00  0.00000000E+00  0.00000000E+00
  0.00000000E+00  0.00000000E+00  0.00000000E+00
  0.00000000E+00  0.00000000E+00  0.00000000E+00
  0.00000000E+00  0.00000000E+00  0.00000000E+00
  0.00000000E+00  0.00000000E+00  0.00000000E+00
  0.00000000E+00  0.00000000E+00  0.00000000E+00
  0.00000000E+00  0.00000000E+00  0.00000000E+00
  0.00000000E+00  0.00000000E+00  0.00000000E+00
  0.00000000E+00  0.00000000E+00  0.00000000E+00
  0.00000000E+00  0.00000000E+00  0.00000000E+00
  0.00000000E+00  0.00000000E+00  0.00000000E+00
  0.00000000E+00  0.00000000E+00  0.00000000E+00
  0.00000000E+00  0.00000000E+00  0.00000000E+00
  0.00000000E+00  0.00000000E+00  0.00000000E+00
  0.00000000E+00  0.00000000E+00  0.00000000E+00
  0.00000000E+00  0.00000000E+00  0.00000000E+00
  0.00000000E+00  0.00000000E+00  0.00000000E+00
  0.00000000E+00  0.00000000E+00  0.00000000E+00
  0.00000000E+00  0.00000000E+00  0.00000000E+00
  0.00000000E+00  0.00000000E+00  0.00000000E+00
  0.00000000E+00  0.00000000E+00  0.00000000E+00
  0.00000000E+00  0.00000000E+00  0.00000000E+00
  0.00000000E+00  0.00000000E+00  0.00000000E+00
  0.00000000E+00  0.00000000E+00  0.00000000E+00
  0.00000000E+00  0.00000000E+00  0.00000000E+00
  0.00000000E+00  0.00000000E+00  0.00000000E+00
  0.00000000E+00  0.00000000E+00  0.00000000E+00
  0.00000000E+00  0.00000000E+00  0.00000000E+00
  0.00000000E+00  0.00000000E+00  0.00000000E+00
  0.00000000E+00  0.00000000E+00  0.00000000E+00
  0.00000000E+00  0.00000000E+00  0.00000000E+00
  0.00000000E+00  0.00000000E+00  0.00000000E+00
  0.00000000E+00  0.00000000E+00  0.00000000E+00
  0.00000000E+00  0.00000000E+00  0.00000000E+00
  0.00000000E+00  0.00000000E+00  0.00000000E+00
  0.00000000E+00  0.00000000E+00  0.00000000E+00
  0.00000000E+00  0.00000000E+00  0.00000000E+00
  0.00000000E+00  0.00000000E+00  0.00000000E+00
  0.00000000E+00  0.00000000E+00  0.00000000E+00
  0.00000000E+00  0.00000000E+00  0.00000000E+00
  0.00000000E+00  0.00000000E+00  0.00000000E+00
  0.00000000E+00  0.00000000E+00  0.00000000E+00
  0.00000000E+00  0.00000000E+00  0.00000000E+00
  0.00000000E+00  0.00000000E+00  0.00000000E+00
  0.00000000E+00  0.00000000E+00  0.00000000E+00
  0.00000000E+00  0.00000000E+00  0.00000000E+00
  0.00000000E+00  0.00000000E+00  0.00000000E+00
  0.00000000E+00  0.00000000E+00  0.00000000E+00
  0.00000000E+00  0.00000000E+00  0.00000000E+00
  0.00000000E+00  0.00000000E+00  0.00000000E+00
  0.00000000E+00  0.00000000E+00  0.00000000E+00
  0.00000000E+00  0.00000000E+00  0.00000000E+00
  0.00000000E+00  0.00000000E+00  0.00000000E+00
  0.00000000E+00  0.00000000E+00  0.00000000E+00
  0.00000000E+00  0.00000000E+00  0.00000000E+00
  0.00000000E+00  0.00000000E+00  0.00000000E+00
  0.00000000E+00  0.00000000E+00  0.00000000E+00
  0.00000000E+00  0.00000000E+00  0.00000000E+00
  0.00000000E+00  0.00000000E+00  0.00000000E+00
  0.00000000E+00  0.00000000E+00  0.00000000E+00
  0.00000000E+00  0.00000000E+00  0.00000000E+00
  0.00000000E+00  0.00000000E+00  0.00000000E+00
  0.00000000E+00  0.00000000E+00  0.00000000E+00
  0.00000000E+00  0.00000000E+00  0.00000000E+00
  0.00000000E+00  0.00000000E+00  0.00000000E+00
  0.00000000E+00  0.00000000E+00  0.00000000E+00
  0.00000000E+00  0.00000000E+00  0.00000000E+00
  0.00000000E+00  0.00000000E+00  0.00000000E+00
  0.00000000E+00  0.00000000E+00  0.00000000E+00
  0.00000000E+00  0.00000000E+00  0.00000000E+00
  0.00000000E+00  0.00000000E+00  0.00000000E+00
  0.00000000E+00  0.00000000E+00  0.00000000E+00
  0.00000000E+00  0.00000000E+00  0.00000000E+00
  0.00000000E+00  0.00000000E+00  0.00000000E+00
  0.00000000E+00  0.00000000E+00  0.00000000E+00
  0.00000000E+00  0.00000000E+00  0.00000000E+00
  0.00000000E+00  0.00000000E+00  0.00000000E+00
  0.00000000E+00  0.00000000E+00  0.00000000E+00
  0.00000000E+00  0.00000000E+00  0.00000000E+00
  0.00000000E+00  0.00000000E+00  0.00000000E+00
  0.00000000E+00  0.00000000E+00  0.00000000E+00
  0.00000000E+00  0.00000000E+00  0.00000000E+00
  0.00000000E+00  0.00000000E+00  0.00000000E+00
  0.00000000E+00  0.00000000E+00  0.00000000E+00
  0.00000000E+00  0.00000000E+00  0.00000000E+00
  0.00000000E+00  0.00000000E+00  0.00000000E+00
  0.00000000E+00  0.00000000E+00  0.00000000E+00
  0.00000000E+00  0.00000000E+00  0.00000000E+00
