kk
 1.0000000000000000
     0.0000000000000000   10.9373336906932952   10.9373336906932952
    10.9373336906932952    0.0000000000000000   10.9373336906932952
    10.9373336906932952   10.9373336906932952    0.0000000000000000
 128
Direct
  0.9937634254098143  0.0006344421457718  0.0026370011450821
  0.2435460114057224  0.0111427972767574  0.9962669895820796
  0.4949598329027290  0.0029565025322398  0.0097024602803962
  0.7502641277834370  0.0052446690298078  0.9934127803194287
  0.9941561197272836  0.2517903090090792  0.0036271450034001
  0.2597261386072515  0.2613209650337852  0.9831856123350883
  0.5011768990254967  0.2449089628197318  0.0004234488738627
  0.7590033393239817  0.2460324474359782  0.9968655303133668
  0.0133486568660493  0.4927982111084391  0.9913521195745791
  0.2493616747541667  0.4999233168250710  0.0042548677610843
  0.5016424241505717  0.4928653657491046  0.9939565692494815
  0.7512673688322785  0.5147042739370713  0.9984730166553838
  0.0024982027579589  0.7511346168070796  0.9995962309953896
  0.2471128171907261  0.7591411231751569  0.9978995839479519
  0.5020567017837066  0.7557231139100379  0.9950457186700509
  0.7525524223965022  0.7371540996091029  0.0112702327296824
  0.0073576264299315  0.0039557254706554  0.2423235047626701
  0.2578697020929231  0.9954314785174272  0.2563913846595484
  0.5104332805901390  0.9996572326953285  0.2484145319109623
  0.7491740451518546  0.9931245550106242  0.2391696040208581
  0.0048757144069885  0.2545532873063137  0.2425710895565195
  0.2442199410298514  0.2500728343574058  0.2497186525136073
  0.5073036517210474  0.2462923858974339  0.2375140732365402
  0.7491534799789017  0.2548977080520879  0.2498429483232069
  0.9947628113767280  0.5002342383299041  0.2554696556820730
  0.2543888635703697  0.4862686933778403  0.2607292661941161
  0.5095315893092075  0.4853165459530364  0.2432890915137206
  0.7430445820367568  0.5113693210017893  0.2436923104701829
  0.0069268788465584  0.7359814872694964  0.2606217213230856
  0.2533666495658098  0.7583421035997391  0.2452723598498030
  0.5114380223483912  0.7450997365441814  0.2604245282572212
  0.7541411099153311  0.7489837912547125  0.2382526171417694
  0.0156171340556273  0.9966387195552354  0.4932700205343605
  0.2515062015723251  0.0007161003278049  0.5027385273461640
  0.4915821886025480  0.0088022599450655  0.4921815219029509
  0.7608579689689723  0.9922900514050500  0.5071588669339433
  0.9982452748223043  0.2532513824468325  0.4932493786280477
  0.2500824716482808  0.2607639296325039  0.4968303979484476
  0.4973491525361013  0.2561377971470723  0.5002167308135131
  0.7466970661009825  0.2533852513631259  0.4877699527926931
  0.0034720874383592  0.5002464574204479  0.5033722174877130
  0.2661361379820310  0.4769289185907958  0.4920503290041203
  0.4922998073289590  0.4963833025211615  0.5034341428697464
  0.7605564030381357  0.4921195445004057  0.4930371736100385
  0.9991884119705055  0.7451147994741208  0.4968509670325089
  0.2428456697187935  0.7533252245027064  0.5006264615159716
  0.4962840308076800  0.7390606896263151  0.5170403452988768
  0.7682362105859905  0.7397705397372701  0.4963421888626965
  0.9911917942890371  0.0022788933082479  0.7387828415437633
  0.2544717073862308  0.0104586109648292  0.7433332143398915
  0.5015602908571599  0.0002488923513317  0.7338185117358299
  0.7486840746761806  0.9941003358216783  0.7563600171517859
  0.0023424276987950  0.2396029429108412  0.7514310255847514
  0.2456905204186992  0.2479494523950179  0.7538231305282590
  0.4932220999652001  0.2542503418754006  0.7481419380382542
  0.7603437544553102  0.2488044856919391  0.7437319386824541
  0.0016962372065422  0.5010402526414065  0.7545355119124022
  0.2526844416440608  0.4947874319096011  0.7539083887246697
  0.4895652266918183  0.5137861592674406  0.7526649725478108
  0.7485748121848792  0.4976019043953993  0.7557175439229687
  0.9934447515789949  0.7653958010559075  0.7487177454443158
  0.2517109065268893  0.7507693784335182  0.7430501324565827
  0.5048680766484073  0.7472787136307794  0.7454427787841709
  0.7533496340893191  0.7636575005272510  0.7482077439883076
  0.0680203151443684  0.0602611009537350  0.0634570051451136
  0.3050423971016663  0.0536977444669912  0.0756873978363938
  0.5647079150695713  0.0625181097678323  0.0702662548657682
  0.8123377075944590  0.0717372074286180  0.0560325057379564
  0.0728173867648666  0.3196988339510382  0.0501674816124263
  0.3068599685415410  0.3196716540458722  0.0649195279328441
  0.5695521229029812  0.3201323856544568  0.0701458950979504
  0.8049245561442141  0.3132167646803661  0.0662502549710213
  0.0675549223453562  0.5606682325437695  0.0612733745600709
  0.3073488685060786  0.5597996060017580  0.0652136679321491
  0.5550791308924996  0.5587470233253292  0.0655341683281608
  0.8181379426256714  0.5577853242542888  0.0618662432810098
  0.0617966181056863  0.8168500962219220  0.0598790014381286
  0.3212067086075475  0.8224900776227543  0.0512100575504624
  0.5651384531533624  0.8116140326581277  0.0623683195167803
  0.8213413643049742  0.8233413912593801  0.0446446864911639
  0.0559640326609971  0.0759299046974892  0.3094301868423848
  0.3002120461603486  0.0743737985625732  0.3138882406011668
  0.5687383801210687  0.0680233547830673  0.3094916589234625
  0.8098991248450077  0.0562589562102992  0.3156654657280662
  0.0614123333974586  0.3221280655641879  0.3128406348012823
  0.3224100190591074  0.3208758146156527  0.2978494896020930
  0.5617879731427763  0.3069770489486399  0.3173466263172328
  0.8121692660450285  0.3119107548056769  0.3090835182305720
  0.0551967228673797  0.5623098664766151  0.3094360904791418
  0.3271034994799824  0.5575632435726854  0.3023340855288081
  0.5662121578068284  0.5618033517800411  0.3088631575293618
  0.8154365537775591  0.5695751914491062  0.2987983574452561
  0.0549422270837267  0.8083579701368497  0.3137261379417435
  0.3101287816928208  0.8059245400150155  0.3154084827732753
  0.5680343216782358  0.8073558571087682  0.3259574737134344
  0.8188474119411089  0.8166711738839004  0.2981725029672617
  0.0613171314179429  0.0704821332947444  0.5520814825277389
  0.3076511523500712  0.0586483848708008  0.5663088236347498
  0.5674869899694710  0.0652717776823126  0.5549776779734041
  0.8145605418339137  0.0752390217607290  0.5521049803147071
  0.0439585670724034  0.3050889038546305  0.5694864525355626
  0.3249364458387717  0.2975291875764021  0.5659261494359999
  0.5440053365041732  0.3176263293514135  0.5696454672154407
  0.8217537318035459  0.3171283003044542  0.5561839638849366
  0.0625697778834713  0.5722535403711047  0.5702360251975260
  0.3104076135670196  0.5698078608451650  0.5570098582624513
  0.5653429621346964  0.5535734141586761  0.5583682141745900
  0.7970965913946001  0.5586311049603805  0.5714692878956175
  0.0612439586184171  0.8075597417110723  0.5643605063494578
  0.3081015156800861  0.8135346383635114  0.5564408811915813
  0.5890838380244421  0.8086603509630047  0.5448945482650196
  0.8142645589028831  0.8055405072236003  0.5678779534366344
  0.0635637659042460  0.0523771025502638  0.8242101661891470
  0.3008840028147385  0.0796486965556646  0.8066766787493752
  0.5640514694836497  0.0718382714815476  0.7972832478036643
  0.8147737764463606  0.0520974085148578  0.8143855203647327
  0.0615789606062977  0.3225026674082301  0.8086658907458495
  0.3095518534254659  0.3202539393423138  0.8095481536518960
  0.5641980849536339  0.3145215386067052  0.8162501566443860
  0.8063396890049698  0.3081848047984708  0.8171887769540366
  0.0562103026341676  0.5737959040321361  0.8087421565047197
  0.3072637123003552  0.5626589475536162  0.8244001610856070
  0.5655142330915958  0.5530746474380626  0.8184054469343707
  0.8209568399706793  0.5535333002300317  0.8092375538112468
  0.0653876285091309  0.8119630908449929  0.8180269045208156
  0.3199269919811015  0.8165493368438154  0.8019631104367976
  0.5668797080448764  0.8129421280453186  0.8070589828691213
  0.8202580236626910  0.8119462767288507  0.8146220603967503
