kk                                      
   1.00000000000000     
     0.0000000000000000   10.9373336906932952   10.9373336906932952
    10.9373336906932952    0.0000000000000000   10.9373336906932952
    10.9373336906932952   10.9373336906932952    0.0000000000000000
   Si
   128
Direct
  0.9927803137039746  0.0052108526543506  0.0007240886737279
  0.2517290797739733  0.0145004246891389  0.9998383356048635
  0.5029526533200226  0.9921382511645049  0.9996497548575434
  0.7524224914332720  0.9926249182618889  0.0084397195369235
  0.0066967352356286  0.2481900832999813  0.9961146987887162
  0.2540599114845250  0.2550675403434326  0.9925231357656727
  0.4957520324587037  0.2552060669856644  0.9989437166016941
  0.7534130204175113  0.2587657636062417  0.0029764506676173
  0.9989741229229736  0.4991982261948777  0.9997961513404476
  0.2480922805997707  0.4971655424005377  0.0125781937173315
  0.5077839392721017  0.4943694984664688  0.0041244527899238
  0.7413337311218342  0.5018852286202744  0.9990299466736516
  0.0073290801268371  0.7416446205861291  0.9968419892855067
  0.2545170673744721  0.7430800853902468  0.0014906162714752
  0.4917343727874552  0.7566209045622827  0.0001082594813582
  0.7542115524462858  0.7485723274508942  0.0031402518464674
  0.9946220122952738  0.0011644350737683  0.2538377667195419
  0.2524761913022147  0.9879614205328338  0.2518894837800758
  0.4991723438686222  0.0056773467226208  0.2540632234375835
  0.7426070518793892  0.9949929833700466  0.2613135328685416
  0.9979305374434659  0.2492687121524853  0.2483144536281188
  0.2444973151192187  0.2403905379519031  0.2559728585817922
  0.5013539375722473  0.2484458810132395  0.2572778513940648
  0.7490479303705868  0.2393878936414353  0.2598739678865272
  0.9984962139699789  0.4948060505320555  0.2391624058037820
  0.2563216551882732  0.4952160683025895  0.2491236609985350
  0.4950035969479103  0.5044223876164864  0.2589534872154502
  0.7510432831325318  0.4938703554343604  0.2440061551910304
  0.9910948845387253  0.7454858699906310  0.2523137960274795
  0.2496446111575281  0.7486338473701437  0.2524936557369486
  0.4949939658271703  0.7433493513657865  0.2489570300805042
  0.7525382068045019  0.7436897543354561  0.2518365633776227
  0.0001903878249507  0.0004331489993419  0.5072543368731317
  0.2473944660786671  0.9997988853417752  0.4948956901438279
  0.5011737958787066  0.0018756036630876  0.4949610372160720
  0.7475239343333513  0.0004989259758901  0.4954918781758337
  0.0060545158231307  0.2490063172923627  0.5003648893195916
  0.2458550216098558  0.2451027721109469  0.5050772234343341
  0.4986418531091132  0.2500214228510771  0.5079183973874777
  0.7477441465627663  0.2558898789857054  0.5125948777939868
  0.9981864285515627  0.5003134403501832  0.5011734155875871
  0.2519731615544529  0.5034784534466894  0.4998297234194666
  0.4935056764426236  0.4870519008760184  0.5082599724219392
  0.7554453210314946  0.4984477127768159  0.5002746848733324
  0.9952811993572084  0.7416580957947190  0.5089427307124836
  0.2511705554829078  0.7372624924330680  0.4989209835342692
  0.4989681652419193  0.7410936812552080  0.4908878914585486
  0.7423870751722959  0.7377522326095871  0.5110305603802061
  0.9997423688528784  0.0077152799328601  0.7385430930117565
  0.2447642755188113  0.0097390000982003  0.7518901032416707
  0.4846792205014054  0.0055925981766407  0.7553934889130076
  0.7576354395791540  0.9998350708709935  0.7472712177101073
  0.9988373605046519  0.2504775694402284  0.7509273269146703
  0.2535673643722163  0.2602902009899140  0.7419863120620320
  0.4975219402233222  0.2589278012203948  0.7415447712944001
  0.7538243344971249  0.2501206121316741  0.7514347015523981
  0.9800430529263124  0.5015779147324437  0.7564275782252778
  0.2595072458163870  0.4982518703999901  0.7469897304948319
  0.4847770816788284  0.5023923994527095  0.7539136078350666
  0.7474242140453242  0.5060916295671873  0.7461593871645533
  0.0036304795915569  0.7552117648855941  0.7508753442042391
  0.2451070619635800  0.7515107344635581  0.7580536722183524
  0.4883463187397723  0.7592145693904726  0.7547208335729962
  0.7493334951530315  0.7562479550613190  0.7461444967943009
  0.0732159524614246  0.0628668624616466  0.0490826015212562
  0.3168526417666158  0.0645093389138438  0.0558125677244377
  0.5628215592008843  0.0651035007762317  0.0639660453271986
  0.8098228408879393  0.0496426212880010  0.0707445418334700
  0.0647146531021008  0.3027289939741067  0.0598664648194855
  0.3037718833124714  0.3072693907151773  0.0775845350630888
  0.5630564046900730  0.3169415996079508  0.0583669634248665
  0.8085576679440862  0.3193160296317430  0.0659735372440409
  0.0621489803583515  0.5576540274152393  0.0539557524498235
  0.3233485538042089  0.5610497571111708  0.0530496629234207
  0.5625927198723133  0.5578058224292661  0.0687991843349991
  0.8223639171875732  0.5584657381722877  0.0554119664695918
  0.0507834574766477  0.8235966914214501  0.0542723430879022
  0.3128631196234366  0.8083410504600437  0.0601295639208104
  0.5584048073853793  0.8164205661412467  0.0524566272047835
  0.8266077883412777  0.8204222369209120  0.0424123607181102
  0.0627330538998407  0.0654566235352192  0.3220673671534797
  0.2944597235430209  0.0574245214599927  0.3137188109389442
  0.5772032263540083  0.0553862153519802  0.3052802438507172
  0.8017764183523610  0.0624635425124040  0.3144291442078497
  0.0693222137834653  0.3130387018550564  0.3091179578903649
  0.3060681493439432  0.3096988039890363  0.3134683253016846
  0.5548194350144300  0.3231591676194228  0.3134865567714229
  0.8193898833236304  0.3148621049626001  0.3033002182667062
  0.0605294240461518  0.5556471103610647  0.3166481475452443
  0.3097505558953912  0.5641933990906409  0.3093787278146820
  0.5566503118541490  0.5589074589743603  0.3266007816188861
  0.8195850617859293  0.5534904693397849  0.3106149716869169
  0.0608340935430078  0.8163629373169599  0.3063304094327535
  0.3200336493795177  0.8004774802009962  0.3058073454841121
  0.5790768276771985  0.8003608287220132  0.3014068190682551
  0.8161471179334328  0.8023714051728987  0.3267926030174237
  0.0665154408118482  0.0656318292206279  0.5585599929476714
  0.3176763147737276  0.0592252680402723  0.5617603448917237
  0.5634946231879567  0.0583983918603224  0.5612202029374274
  0.8053649860099412  0.0544574660505575  0.5603757056193146
  0.0582920250706493  0.3090680571610278  0.5665754507095002
  0.3116768187688592  0.3052286127653616  0.5589373261027575
  0.5604019201893138  0.3051251882889545  0.5683426998048446
  0.8145078188926931  0.3234534621734753  0.5576554140305063
  0.0422640972424659  0.5696011023494876  0.5646453474905542
  0.3136628092562859  0.5598789479368449  0.5601359758851601
  0.5708417182333037  0.5572075683089110  0.5645045712185066
  0.8103844599779961  0.5608502713400298  0.5655296120517406
  0.0613528598947894  0.8115481662417778  0.5693090305751980
  0.3032709503605346  0.8116097976058683  0.5776878586106236
  0.5606416670242069  0.8206943385452519  0.5533613623336038
  0.8001714359566634  0.8192036449304894  0.5655242088170951
  0.0439617919800597  0.0661096000485273  0.8140290529440932
  0.3103448660760648  0.0648438547619463  0.8127405756843018
  0.5498523869338570  0.0793202365416548  0.8006565234133944
  0.8051162240064258  0.0685735754282888  0.8104537393971327
  0.0666033859700477  0.3120354212424843  0.8126909859463893
  0.3152166078828600  0.3114113009436394  0.8088667854689220
  0.5630362517731484  0.3037804284285244  0.8079124347950781
  0.8137515833393110  0.3101554327529570  0.8098032613373931
  0.0591321770221924  0.5680671256747303  0.8103540633772397
  0.3102760909816524  0.5745602635994160  0.8075619160852767
  0.5592156383823408  0.5713798124389982  0.8134553070304733
  0.7952242547247295  0.5716912562939882  0.8209744527447498
  0.0621412070846361  0.8160886947808166  0.8133966501340382
  0.3109597357781908  0.8190011790220098  0.8118329364654500
  0.5559391686512072  0.8187366441385677  0.8220870234080095
  0.8043769476754363  0.8176887823581040  0.8050948566646667
 
  0.00000000E+00  0.00000000E+00  0.00000000E+00
  0.00000000E+00  0.00000000E+00  0.00000000E+00
  0.00000000E+00  0.00000000E+00  0.00000000E+00
  0.00000000E+00  0.00000000E+00  0.00000000E+00
  0.00000000E+00  0.00000000E+00  0.00000000E+00
  0.00000000E+00  0.00000000E+00  0.00000000E+00
  0.00000000E+00  0.00000000E+00  0.00000000E+00
  0.00000000E+00  0.00000000E+00  0.00000000E+00
  0.00000000E+00  0.00000000E+00  0.00000000E+00
  0.00000000E+00  0.00000000E+00  0.00000000E+00
  0.00000000E+00  0.00000000E+00  0.00000000E+00
  0.00000000E+00  0.00000000E+00  0.00000000E+00
  0.00000000E+00  0.00000000E+00  0.00000000E+00
  0.00000000E+00  0.00000000E+00  0.00000000E+00
  0.00000000E+00  0.00000000E+00  0.00000000E+00
  0.00000000E+00  0.00000000E+00  0.00000000E+00
  0.00000000E+00  0.00000000E+00  0.00000000E+00
  0.00000000E+00  0.00000000E+00  0.00000000E+00
  0.00000000E+00  0.00000000E+00  0.00000000E+00
  0.00000000E+00  0.00000000E+00  0.00000000E+00
  0.00000000E+00  0.00000000E+00  0.00000000E+00
  0.00000000E+00  0.00000000E+00  0.00000000E+00
  0.00000000E+00  0.00000000E+00  0.00000000E+00
  0.00000000E+00  0.00000000E+00  0.00000000E+00
  0.00000000E+00  0.00000000E+00  0.00000000E+00
  0.00000000E+00  0.00000000E+00  0.00000000E+00
  0.00000000E+00  0.00000000E+00  0.00000000E+00
  0.00000000E+00  0.00000000E+00  0.00000000E+00
  0.00000000E+00  0.00000000E+00  0.00000000E+00
  0.00000000E+00  0.00000000E+00  0.00000000E+00
  0.00000000E+00  0.00000000E+00  0.00000000E+00
  0.00000000E+00  0.00000000E+00  0.00000000E+00
  0.00000000E+00  0.00000000E+00  0.00000000E+00
  0.00000000E+00  0.00000000E+00  0.00000000E+00
  0.00000000E+00  0.00000000E+00  0.00000000E+00
  0.00000000E+00  0.00000000E+00  0.00000000E+00
  0.00000000E+00  0.00000000E+00  0.00000000E+00
  0.00000000E+00  0.00000000E+00  0.00000000E+00
  0.00000000E+00  0.00000000E+00  0.00000000E+00
  0.00000000E+00  0.00000000E+00  0.00000000E+00
  0.00000000E+00  0.00000000E+00  0.00000000E+00
  0.00000000E+00  0.00000000E+00  0.00000000E+00
  0.00000000E+00  0.00000000E+00  0.00000000E+00
  0.00000000E+00  0.00000000E+00  0.00000000E+00
  0.00000000E+00  0.00000000E+00  0.00000000E+00
  0.00000000E+00  0.00000000E+00  0.00000000E+00
  0.00000000E+00  0.00000000E+00  0.00000000E+00
  0.00000000E+00  0.00000000E+00  0.00000000E+00
  0.00000000E+00  0.00000000E+00  0.00000000E+00
  0.00000000E+00  0.00000000E+00  0.00000000E+00
  0.00000000E+00  0.00000000E+00  0.00000000E+00
  0.00000000E+00  0.00000000E+00  0.00000000E+00
  0.00000000E+00  0.00000000E+00  0.00000000E+00
  0.00000000E+00  0.00000000E+00  0.00000000E+00
  0.00000000E+00  0.00000000E+00  0.00000000E+00
  0.00000000E+00  0.00000000E+00  0.00000000E+00
  0.00000000E+00  0.00000000E+00  0.00000000E+00
  0.00000000E+00  0.00000000E+00  0.00000000E+00
  0.00000000E+00  0.00000000E+00  0.00000000E+00
  0.00000000E+00  0.00000000E+00  0.00000000E+00
  0.00000000E+00  0.00000000E+00  0.00000000E+00
  0.00000000E+00  0.00000000E+00  0.00000000E+00
  0.00000000E+00  0.00000000E+00  0.00000000E+00
  0.00000000E+00  0.00000000E+00  0.00000000E+00
  0.00000000E+00  0.00000000E+00  0.00000000E+00
  0.00000000E+00  0.00000000E+00  0.00000000E+00
  0.00000000E+00  0.00000000E+00  0.00000000E+00
  0.00000000E+00  0.00000000E+00  0.00000000E+00
  0.00000000E+00  0.00000000E+00  0.00000000E+00
  0.00000000E+00  0.00000000E+00  0.00000000E+00
  0.00000000E+00  0.00000000E+00  0.00000000E+00
  0.00000000E+00  0.00000000E+00  0.00000000E+00
  0.00000000E+00  0.00000000E+00  0.00000000E+00
  0.00000000E+00  0.00000000E+00  0.00000000E+00
  0.00000000E+00  0.00000000E+00  0.00000000E+00
  0.00000000E+00  0.00000000E+00  0.00000000E+00
  0.00000000E+00  0.00000000E+00  0.00000000E+00
  0.00000000E+00  0.00000000E+00  0.00000000E+00
  0.00000000E+00  0.00000000E+00  0.00000000E+00
  0.00000000E+00  0.00000000E+00  0.00000000E+00
  0.00000000E+00  0.00000000E+00  0.00000000E+00
  0.00000000E+00  0.00000000E+00  0.00000000E+00
  0.00000000E+00  0.00000000E+00  0.00000000E+00
  0.00000000E+00  0.00000000E+00  0.00000000E+00
  0.00000000E+00  0.00000000E+00  0.00000000E+00
  0.00000000E+00  0.00000000E+00  0.00000000E+00
  0.00000000E+00  0.00000000E+00  0.00000000E+00
  0.00000000E+00  0.00000000E+00  0.00000000E+00
  0.00000000E+00  0.00000000E+00  0.00000000E+00
  0.00000000E+00  0.00000000E+00  0.00000000E+00
  0.00000000E+00  0.00000000E+00  0.00000000E+00
  0.00000000E+00  0.00000000E+00  0.00000000E+00
  0.00000000E+00  0.00000000E+00  0.00000000E+00
  0.00000000E+00  0.00000000E+00  0.00000000E+00
  0.00000000E+00  0.00000000E+00  0.00000000E+00
  0.00000000E+00  0.00000000E+00  0.00000000E+00
  0.00000000E+00  0.00000000E+00  0.00000000E+00
  0.00000000E+00  0.00000000E+00  0.00000000E+00
  0.00000000E+00  0.00000000E+00  0.00000000E+00
  0.00000000E+00  0.00000000E+00  0.00000000E+00
  0.00000000E+00  0.00000000E+00  0.00000000E+00
  0.00000000E+00  0.00000000E+00  0.00000000E+00
  0.00000000E+00  0.00000000E+00  0.00000000E+00
  0.00000000E+00  0.00000000E+00  0.00000000E+00
  0.00000000E+00  0.00000000E+00  0.00000000E+00
  0.00000000E+00  0.00000000E+00  0.00000000E+00
  0.00000000E+00  0.00000000E+00  0.00000000E+00
  0.00000000E+00  0.00000000E+00  0.00000000E+00
  0.00000000E+00  0.00000000E+00  0.00000000E+00
  0.00000000E+00  0.00000000E+00  0.00000000E+00
  0.00000000E+00  0.00000000E+00  0.00000000E+00
  0.00000000E+00  0.00000000E+00  0.00000000E+00
  0.00000000E+00  0.00000000E+00  0.00000000E+00
  0.00000000E+00  0.00000000E+00  0.00000000E+00
  0.00000000E+00  0.00000000E+00  0.00000000E+00
  0.00000000E+00  0.00000000E+00  0.00000000E+00
  0.00000000E+00  0.00000000E+00  0.00000000E+00
  0.00000000E+00  0.00000000E+00  0.00000000E+00
  0.00000000E+00  0.00000000E+00  0.00000000E+00
  0.00000000E+00  0.00000000E+00  0.00000000E+00
  0.00000000E+00  0.00000000E+00  0.00000000E+00
  0.00000000E+00  0.00000000E+00  0.00000000E+00
  0.00000000E+00  0.00000000E+00  0.00000000E+00
  0.00000000E+00  0.00000000E+00  0.00000000E+00
  0.00000000E+00  0.00000000E+00  0.00000000E+00
  0.00000000E+00  0.00000000E+00  0.00000000E+00
  0.00000000E+00  0.00000000E+00  0.00000000E+00
  0.00000000E+00  0.00000000E+00  0.00000000E+00
