kk
 1.0000000000000000
     0.0000000000000000   10.9373336906932952   10.9373336906932952
    10.9373336906932952    0.0000000000000000   10.9373336906932952
    10.9373336906932952   10.9373336906932952    0.0000000000000000
 128
Direct
  0.9927803137039749  0.0052108526543477  0.0007240886737293
  0.2517290797739729  0.0145004246891374  0.9998383356048619
  0.5029526533200259  0.9921382511645032  0.9996497548575448
  0.7524224914332744  0.9926249182618909  0.0084397195369230
  0.0066967352356314  0.2481900832999836  0.9961146987887159
  0.2540599114845254  0.2550675403434297  0.9925231357656743
  0.4957520324587063  0.2552060669856628  0.9989437166016918
  0.7534130204175129  0.2587657636062389  0.0029764506676200
  0.9989741229229768  0.4991982261948752  0.9997961513404464
  0.2480922805997730  0.4971655424005387  0.0125781937173294
  0.5077839392721031  0.4943694984664691  0.0041244527899235
  0.7413337311218340  0.5018852286202721  0.9990299466736544
  0.0073290801268358  0.7416446205861313  0.9968419892855034
  0.2545170673744689  0.7430800853902462  0.0014906162714724
  0.4917343727874560  0.7566209045622815  0.0001082594813612
  0.7542115524462863  0.7485723274508960  0.0031402518464647
  0.9946220122952740  0.0011644350737692  0.2538377667195421
  0.2524761913022127  0.9879614205328346  0.2518894837800767
  0.4991723438686222  0.0056773467226193  0.2540632234375822
  0.7426070518793897  0.9949929833700434  0.2613135328685448
  0.9979305374434666  0.2492687121524829  0.2483144536281216
  0.2444973151192183  0.2403905379519058  0.2559728585817905
  0.5013539375722457  0.2484458810132429  0.2572778513940629
  0.7490479303705895  0.2393878936414327  0.2598739678865258
  0.9984962139699783  0.4948060505320521  0.2391624058037852
  0.2563216551882748  0.4952160683025875  0.2491236609985316
  0.4950035969479124  0.5044223876164847  0.2589534872154487
  0.7510432831325342  0.4938703554343584  0.2440061551910278
  0.9910948845387271  0.7454858699906342  0.2523137960274812
  0.2496446111575285  0.7486338473701424  0.2524936557369482
  0.4949939658271670  0.7433493513657899  0.2489570300805059
  0.7525382068044992  0.7436897543354531  0.2518365633776256
  0.0001903878249511  0.0004331489993404  0.5072543368731341
  0.2473944660786646  0.9997988853417727  0.4948956901438283
  0.5011737958787090  0.0018756036630861  0.4949610372160703
  0.7475239343333544  0.0004989259758876  0.4954918781758366
  0.0060545158231318  0.2490063172923654  0.5003648893195894
  0.2458550216098583  0.2451027721109437  0.5050772234343347
  0.4986418531091105  0.2500214228510781  0.5079183973874786
  0.7477441465627668  0.2558898789857038  0.5125948777939838
  0.9981864285515644  0.5003134403501810  0.5011734155875889
  0.2519731615544534  0.5034784534466904  0.4998297234194662
  0.4935056764426247  0.4870519008760215  0.5082599724219404
  0.7554453210314955  0.4984477127768194  0.5002746848733308
  0.9952811993572062  0.7416580957947189  0.5089427307124837
  0.2511705554829043  0.7372624924330666  0.4989209835342657
  0.4989681652419214  0.7410936812552067  0.4908878914585461
  0.7423870751722936  0.7377522326095887  0.5110305603802051
  0.9997423688528798  0.0077152799328576  0.7385430930117542
  0.2447642755188096  0.0097390000982034  0.7518901032416704
  0.4846792205014027  0.0055925981766396  0.7553934889130060
  0.7576354395791518  0.9998350708709905  0.7472712177101086
  0.9988373605046507  0.2504775694402303  0.7509273269146671
  0.2535673643722172  0.2602902009899152  0.7419863120620290
  0.4975219402233217  0.2589278012203944  0.7415447712943997
  0.7538243344971229  0.2501206121316765  0.7514347015523969
  0.9800430529263110  0.5015779147324467  0.7564275782252803
  0.2595072458163901  0.4982518703999881  0.7469897304948342
  0.4847770816788272  0.5023923994527122  0.7539136078350654
  0.7474242140453208  0.5060916295671869  0.7461593871645522
  0.0036304795915568  0.7552117648855965  0.7508753442042404
  0.2451070619635817  0.7515107344635585  0.7580536722183500
  0.4883463187397722  0.7592145693904727  0.7547208335729978
  0.7493334951530304  0.7562479550613179  0.7461444967943005
  0.0732159524614217  0.0628668624616489  0.0490826015212588
  0.3168526417666158  0.0645093389138406  0.0558125677244383
  0.5628215592008821  0.0651035007762301  0.0639660453272003
  0.8098228408879424  0.0496426212879998  0.0707445418334673
  0.0647146531020991  0.3027289939741102  0.0598664648194881
  0.3037718833124739  0.3072693907151787  0.0775845350630871
  0.5630564046900697  0.3169415996079485  0.0583669634248683
  0.8085576679440877  0.3193160296317437  0.0659735372440424
  0.0621489803583501  0.5576540274152390  0.0539557524498231
  0.3233485538042098  0.5610497571111737  0.0530496629234201
  0.5625927198723166  0.5578058224292671  0.0687991843349983
  0.8223639171875735  0.5584657381722890  0.0554119664695894
  0.0507834574766474  0.8235966914214519  0.0542723430879026
  0.3128631196234395  0.8083410504600409  0.0601295639208106
  0.5584048073853775  0.8164205661412444  0.0524566272047864
  0.8266077883412750  0.8204222369209102  0.0424123607181119
  0.0627330538998423  0.0654566235352222  0.3220673671534777
  0.2944597235430218  0.0574245214599892  0.3137188109389444
  0.5772032263540054  0.0553862153519781  0.3052802438507191
  0.8017764183523589  0.0624635425124025  0.3144291442078510
  0.0693222137834633  0.3130387018550553  0.3091179578903684
  0.3060681493439436  0.3096988039890384  0.3134683253016823
  0.5548194350144304  0.3231591676194208  0.3134865567714208
  0.8193898833236292  0.3148621049626001  0.3033002182667051
  0.0605294240461525  0.5556471103610623  0.3166481475452426
  0.3097505558953940  0.5641933990906410  0.3093787278146796
  0.5566503118541486  0.5589074589743573  0.3266007816188895
  0.8195850617859303  0.5534904693397856  0.3106149716869158
  0.0608340935430089  0.8163629373169621  0.3063304094327557
  0.3200336493795156  0.8004774802009942  0.3058073454841100
  0.5790768276771964  0.8003608287220139  0.3014068190682582
  0.8161471179334306  0.8023714051728964  0.3267926030174227
  0.0665154408118463  0.0656318292206271  0.5585599929476746
  0.3176763147737287  0.0592252680402754  0.5617603448917209
  0.5634946231879534  0.0583983918603190  0.5612202029374244
  0.8053649860099444  0.0544574660505603  0.5603757056193115
  0.0582920250706489  0.3090680571610312  0.5665754507095002
  0.3116768187688591  0.3052286127653639  0.5589373261027605
  0.5604019201893121  0.3051251882889543  0.5683426998048460
  0.8145078188926915  0.3234534621734771  0.5576554140305096
  0.0422640972424686  0.5696011023494860  0.5646453474905534
  0.3136628092562845  0.5598789479368449  0.5601359758851583
  0.5708417182333047  0.5572075683089112  0.5645045712185052
  0.8103844599779989  0.5608502713400331  0.5655296120517407
  0.0613528598947916  0.8115481662417813  0.5693090305751999
  0.3032709503605334  0.8116097976058687  0.5776878586106267
  0.5606416670242083  0.8206943385452520  0.5533613623336032
  0.8001714359566601  0.8192036449304915  0.5655242088170926
  0.0439617919800600  0.0661096000485298  0.8140290529440939
  0.3103448660760671  0.0648438547619474  0.8127405756843048
  0.5498523869338579  0.0793202365416534  0.8006565234133951
  0.8051162240064248  0.0685735754282886  0.8104537393971316
  0.0666033859700444  0.3120354212424839  0.8126909859463921
  0.3152166078828585  0.3114113009436366  0.8088667854689230
  0.5630362517731463  0.3037804284285225  0.8079124347950805
  0.8137515833393134  0.3101554327529558  0.8098032613373911
  0.0591321770221910  0.5680671256747289  0.8103540633772385
  0.3102760909816521  0.5745602635994183  0.8075619160852743
  0.5592156383823391  0.5713798124389997  0.8134553070304705
  0.7952242547247328  0.5716912562939880  0.8209744527447465
  0.0621412070846374  0.8160886947808174  0.8133966501340414
  0.3109597357781893  0.8190011790220099  0.8118329364654510
  0.5559391686512098  0.8187366441385683  0.8220870234080109
  0.8043769476754334  0.8176887823581007  0.8050948566646645
