Si                                      
   1.00000000000000     
    -0.0000000000000000    2.7343334226733238    2.7343334226733238
     2.7343334226733238    0.0000000000000000    2.7343334226733238
     2.7343334226733238    2.7343334226733238   -0.0000000000000000
   Si
     2
Direct
 -0.0000000000000000 -0.0000000000000000 -0.0000000000000000
  0.2500000000000000  0.2500000000000000  0.2500000000000000

