generated by phonopy
   1.0
     0.0000000000000000   10.9373336906932952   10.9373336906932952
    10.9373336906932952    0.0000000000000000   10.9373336906932952
    10.9373336906932952   10.9373336906932952    0.0000000000000000
Si
 128
Direct
  0.0000000000000000  0.0000000000000000  0.0000000000000000
  0.2500000000000000  0.0000000000000000  0.0000000000000000
  0.5000000000000000  0.0000000000000000  0.0000000000000000
  0.7500000000000000  0.0000000000000000  0.0000000000000000
  0.0000000000000000  0.2500000000000000  0.0000000000000000
  0.2500000000000000  0.2500000000000000  0.0000000000000000
  0.5000000000000000  0.2500000000000000  0.0000000000000000
  0.7500000000000000  0.2500000000000000  0.0000000000000000
  0.0000000000000000  0.5000000000000000  0.0000000000000000
  0.2500000000000000  0.5000000000000000  0.0000000000000000
  0.5000000000000000  0.5000000000000000  0.0000000000000000
  0.7500000000000000  0.5000000000000000  0.0000000000000000
  0.0000000000000000  0.7500000000000000  0.0000000000000000
  0.2500000000000000  0.7500000000000000  0.0000000000000000
  0.5000000000000000  0.7500000000000000  0.0000000000000000
  0.7500000000000000  0.7500000000000000  0.0000000000000000
  0.0000000000000000  0.0000000000000000  0.2500000000000000
  0.2500000000000000  0.0000000000000000  0.2500000000000000
  0.5000000000000000  0.0000000000000000  0.2500000000000000
  0.7500000000000000  0.0000000000000000  0.2500000000000000
  0.0000000000000000  0.2500000000000000  0.2500000000000000
  0.2500000000000000  0.2500000000000000  0.2500000000000000
  0.5000000000000000  0.2500000000000000  0.2500000000000000
  0.7500000000000000  0.2500000000000000  0.2500000000000000
  0.0000000000000000  0.5000000000000000  0.2500000000000000
  0.2500000000000000  0.5000000000000000  0.2500000000000000
  0.5000000000000000  0.5000000000000000  0.2500000000000000
  0.7500000000000000  0.5000000000000000  0.2500000000000000
  0.0000000000000000  0.7500000000000000  0.2500000000000000
  0.2500000000000000  0.7500000000000000  0.2500000000000000
  0.5000000000000000  0.7500000000000000  0.2500000000000000
  0.7500000000000000  0.7500000000000000  0.2500000000000000
  0.0000000000000000  0.0000000000000000  0.5000000000000000
  0.2500000000000000  0.0000000000000000  0.5000000000000000
  0.5000000000000000  0.0000000000000000  0.5000000000000000
  0.7500000000000000  0.0000000000000000  0.5000000000000000
  0.0000000000000000  0.2500000000000000  0.5000000000000000
  0.2500000000000000  0.2500000000000000  0.5000000000000000
  0.5000000000000000  0.2500000000000000  0.5000000000000000
  0.7500000000000000  0.2500000000000000  0.5000000000000000
  0.0000000000000000  0.5000000000000000  0.5000000000000000
  0.2500000000000000  0.5000000000000000  0.5000000000000000
  0.5000000000000000  0.5000000000000000  0.5000000000000000
  0.7500000000000000  0.5000000000000000  0.5000000000000000
  0.0000000000000000  0.7500000000000000  0.5000000000000000
  0.2500000000000000  0.7500000000000000  0.5000000000000000
  0.5000000000000000  0.7500000000000000  0.5000000000000000
  0.7500000000000000  0.7500000000000000  0.5000000000000000
  0.0000000000000000  0.0000000000000000  0.7500000000000000
  0.2500000000000000  0.0000000000000000  0.7500000000000000
  0.5000000000000000  0.0000000000000000  0.7500000000000000
  0.7500000000000000  0.0000000000000000  0.7500000000000000
  0.0000000000000000  0.2500000000000000  0.7500000000000000
  0.2500000000000000  0.2500000000000000  0.7500000000000000
  0.5000000000000000  0.2500000000000000  0.7500000000000000
  0.7500000000000000  0.2500000000000000  0.7500000000000000
  0.0000000000000000  0.5000000000000000  0.7500000000000000
  0.2500000000000000  0.5000000000000000  0.7500000000000000
  0.5000000000000000  0.5000000000000000  0.7500000000000000
  0.7500000000000000  0.5000000000000000  0.7500000000000000
  0.0000000000000000  0.7500000000000000  0.7500000000000000
  0.2500000000000000  0.7500000000000000  0.7500000000000000
  0.5000000000000000  0.7500000000000000  0.7500000000000000
  0.7500000000000000  0.7500000000000000  0.7500000000000000
  0.0625000000000000  0.0625000000000000  0.0625000000000000
  0.3125000000000000  0.0625000000000000  0.0625000000000000
  0.5625000000000000  0.0625000000000000  0.0625000000000000
  0.8125000000000000  0.0625000000000000  0.0625000000000000
  0.0625000000000000  0.3125000000000000  0.0625000000000000
  0.3125000000000000  0.3125000000000000  0.0625000000000000
  0.5625000000000000  0.3125000000000000  0.0625000000000000
  0.8125000000000000  0.3125000000000000  0.0625000000000000
  0.0625000000000000  0.5625000000000000  0.0625000000000000
  0.3125000000000000  0.5625000000000000  0.0625000000000000
  0.5625000000000000  0.5625000000000000  0.0625000000000000
  0.8125000000000000  0.5625000000000000  0.0625000000000000
  0.0625000000000000  0.8125000000000000  0.0625000000000000
  0.3125000000000000  0.8125000000000000  0.0625000000000000
  0.5625000000000000  0.8125000000000000  0.0625000000000000
  0.8125000000000000  0.8125000000000000  0.0625000000000000
  0.0625000000000000  0.0625000000000000  0.3125000000000000
  0.3125000000000000  0.0625000000000000  0.3125000000000000
  0.5625000000000000  0.0625000000000000  0.3125000000000000
  0.8125000000000000  0.0625000000000000  0.3125000000000000
  0.0625000000000000  0.3125000000000000  0.3125000000000000
  0.3125000000000000  0.3125000000000000  0.3125000000000000
  0.5625000000000000  0.3125000000000000  0.3125000000000000
  0.8125000000000000  0.3125000000000000  0.3125000000000000
  0.0625000000000000  0.5625000000000000  0.3125000000000000
  0.3125000000000000  0.5625000000000000  0.3125000000000000
  0.5625000000000000  0.5625000000000000  0.3125000000000000
  0.8125000000000000  0.5625000000000000  0.3125000000000000
  0.0625000000000000  0.8125000000000000  0.3125000000000000
  0.3125000000000000  0.8125000000000000  0.3125000000000000
  0.5625000000000000  0.8125000000000000  0.3125000000000000
  0.8125000000000000  0.8125000000000000  0.3125000000000000
  0.0625000000000000  0.0625000000000000  0.5625000000000000
  0.3125000000000000  0.0625000000000000  0.5625000000000000
  0.5625000000000000  0.0625000000000000  0.5625000000000000
  0.8125000000000000  0.0625000000000000  0.5625000000000000
  0.0625000000000000  0.3125000000000000  0.5625000000000000
  0.3125000000000000  0.3125000000000000  0.5625000000000000
  0.5625000000000000  0.3125000000000000  0.5625000000000000
  0.8125000000000000  0.3125000000000000  0.5625000000000000
  0.0625000000000000  0.5625000000000000  0.5625000000000000
  0.3125000000000000  0.5625000000000000  0.5625000000000000
  0.5625000000000000  0.5625000000000000  0.5625000000000000
  0.8125000000000000  0.5625000000000000  0.5625000000000000
  0.0625000000000000  0.8125000000000000  0.5625000000000000
  0.3125000000000000  0.8125000000000000  0.5625000000000000
  0.5625000000000000  0.8125000000000000  0.5625000000000000
  0.8125000000000000  0.8125000000000000  0.5625000000000000
  0.0625000000000000  0.0625000000000000  0.8125000000000000
  0.3125000000000000  0.0625000000000000  0.8125000000000000
  0.5625000000000000  0.0625000000000000  0.8125000000000000
  0.8125000000000000  0.0625000000000000  0.8125000000000000
  0.0625000000000000  0.3125000000000000  0.8125000000000000
  0.3125000000000000  0.3125000000000000  0.8125000000000000
  0.5625000000000000  0.3125000000000000  0.8125000000000000
  0.8125000000000000  0.3125000000000000  0.8125000000000000
  0.0625000000000000  0.5625000000000000  0.8125000000000000
  0.3125000000000000  0.5625000000000000  0.8125000000000000
  0.5625000000000000  0.5625000000000000  0.8125000000000000
  0.8125000000000000  0.5625000000000000  0.8125000000000000
  0.0625000000000000  0.8125000000000000  0.8125000000000000
  0.3125000000000000  0.8125000000000000  0.8125000000000000
  0.5625000000000000  0.8125000000000000  0.8125000000000000
  0.8125000000000000  0.8125000000000000  0.8125000000000000
