kk                                      
   1.00000000000000     
     0.0000000000000000   10.9373336906932952   10.9373336906932952
    10.9373336906932952    0.0000000000000000   10.9373336906932952
    10.9373336906932952   10.9373336906932952    0.0000000000000000
   Si
   128
Direct
  0.9883416119813830  0.0007514401799753  0.0158516065866436
  0.2683465522888824  0.9920247586662612  0.0007325321506571
  0.4981774663941962  0.9960569860806032  0.9952919205046626
  0.7423193106694228  0.0077422756173391  0.0016511427277663
  0.9951672527161506  0.2551327714609641  0.9907442869019789
  0.2645340102760301  0.2430188696656757  0.9934917327756239
  0.4975206126773415  0.2487371541986931  0.0050334054426386
  0.7478826035233581  0.2454402941828988  0.0004566179390579
  0.0080284502723700  0.4962525150261783  0.0015493947613123
  0.2458154851372214  0.4978476374031331  0.0034459458498404
  0.4918867802599962  0.5081112998238808  0.0049905022384280
  0.7529322736063904  0.4955207414868283  0.0042794101964745
  0.9998550824324965  0.7443576667023848  0.0061098485537840
  0.2422072091159677  0.7469492100221657  0.9978859416076702
  0.4915309113518163  0.7483496529338893  0.0103138978705957
  0.7371509554481861  0.7549005875425649  0.0045926164225989
  0.0150382618564677  0.9916017030929112  0.2443467385753593
  0.2411555700804868  0.0095602517016289  0.2495310564391460
  0.5058146543020854  0.9996959013772013  0.2383586333011465
  0.7413587875361358  0.9955766846190386  0.2576453740624700
  0.9957169538962773  0.2468854183010478  0.2652053741685094
  0.2486964170578077  0.2611249213689248  0.2486365928201266
  0.4978174468525154  0.2527863764251563  0.2506126085486429
  0.7483949811765100  0.2512237816147973  0.2545173367984717
  0.9927462668360363  0.5098951277136976  0.2481112936492451
  0.2557654192669148  0.4871403663849563  0.2573164353232542
  0.4916197922245829  0.5015064513936025  0.2502324170137413
  0.7514205668931027  0.5010962081539603  0.2509331482240569
  0.0082116151148171  0.7504699552886578  0.2447433283177674
  0.2445449289608774  0.7478465126441307  0.2541293432729077
  0.5058211935281136  0.7427386992794922  0.2523302986872338
  0.7454440747014672  0.7518221398095122  0.2530334901875264
  0.9954451325829510  0.0090401066490244  0.4932608513460650
  0.2569302202416850  0.9995632241603190  0.4975103260263936
  0.4979196246211615  0.9989978863269755  0.5056679839362133
  0.7530223044459419  0.0035108210272057  0.5018599692642027
  0.9948377121391729  0.2417414292319862  0.5100868246373125
  0.2391630081285854  0.2550521920750910  0.5073710700925105
  0.5066022715853933  0.2397595801552939  0.5031059433247407
  0.7572450018667070  0.2372379982524180  0.4895217912869967
  0.9977275554313039  0.4872581754393224  0.5032771014514807
  0.2387117666181382  0.5038462004687929  0.4964983194563573
  0.5078371895310383  0.5093426190694714  0.5012773759320055
  0.7442364413469562  0.4993979935428996  0.5071776573005806
  0.9978414574295513  0.7492789842709868  0.5021126821224797
  0.2478627342992041  0.7506663485113307  0.4957673364150992
  0.5033009523650804  0.7550944787434233  0.4946389282353536
  0.7538511553720113  0.7506141909346411  0.4903546661459899
  0.9999044307472076  0.9914873069054408  0.7496847434308194
  0.2413266936468261  0.0066360168108943  0.7546448660746989
  0.5014836590045348  0.9970355869720748  0.7493250478618450
  0.7508828524602151  0.0039758733590602  0.7407676289656564
  0.9966086440909478  0.2353130016330311  0.7707317779405756
  0.2523364891942848  0.2510478160735374  0.7530609869646412
  0.4905332026800906  0.2476486090402972  0.7530291808531118
  0.7610923981071522  0.2433698202797316  0.7633902639004546
  0.9900923877421093  0.4977688771188866  0.7581929818681132
  0.2366140589536911  0.5057506451993703  0.7454717905410106
  0.4931324666388903  0.4985100320306302  0.7468829710849079
  0.7576225098567875  0.5015664546489376  0.7408717818027455
  0.9982249549263997  0.7500473845041711  0.7441211564546180
  0.2494743633389689  0.7577772441034583  0.7451621356558178
  0.5003868835454455  0.7455615191874188  0.7479063101144021
  0.7482060777364552  0.7485091286811070  0.7477778901275727
  0.0690476350229758  0.0588172911224305  0.0603312446183892
  0.3212459852433653  0.0490392690721606  0.0672453394759387
  0.5678307249572327  0.0550697594690419  0.0671578704417257
  0.8097975311755405  0.0607797982974461  0.0687001950638617
  0.0662060294598561  0.3116657756202628  0.0612827038635828
  0.3139688058684982  0.3123235817747982  0.0609983034100452
  0.5686209427504068  0.3200351853973160  0.0541214269097026
  0.8041947785145993  0.3270411090288405  0.0697689565317958
  0.0614602213256816  0.5551067648149441  0.0636630401363689
  0.3117982485317654  0.5573088436494871  0.0706078185890107
  0.5700593374998704  0.5725570661130064  0.0456955957894181
  0.8188850831152052  0.5612006743460682  0.0579487801994816
  0.0651586892591212  0.7983235947254244  0.0703862715369823
  0.3156179895866842  0.8080499668774195  0.0537103652826474
  0.5584030499798018  0.8067829788456820  0.0715048197602854
  0.8093894011382048  0.8268120510227064  0.0469208088991522
  0.0656600668440603  0.0573000005493469  0.3178517007408885
  0.3237141212306014  0.0601364001421771  0.3016258933384464
  0.5529570482996604  0.0693231817130950  0.3246324536849414
  0.7998945561672954  0.0734315831344290  0.3193852198934195
  0.0665490013775383  0.3150670897146597  0.3059336014842913
  0.3176642640231790  0.3048458318408507  0.3215756459441579
  0.5663367857493995  0.3180172127407914  0.3143741933958708
  0.8154737433186696  0.2986185617937522  0.3142901595115433
  0.0553566435067339  0.5659020102045886  0.3103618802572754
  0.3142572385268494  0.5525040832039210  0.3182750888767032
  0.5713444911945942  0.5566250331704694  0.3133360679142001
  0.8172900242767014  0.5570299891572859  0.3168399169858276
  0.0654146359218402  0.8186972380397961  0.3059327309308557
  0.2999166792654080  0.8109919148495877  0.3065134553471509
  0.5750392234540627  0.8163296173425607  0.3032464976298783
  0.8096058645374029  0.8216768597575808  0.3080945865857458
  0.0610378491427142  0.0626107843336428  0.5719359119308720
  0.3070338841689093  0.0612942253478650  0.5674282854882478
  0.5679895565843296  0.0687001026098883  0.5378089037982647
  0.8202062937162111  0.0612604705720088  0.5668333709018754
  0.0553137768738807  0.3043078268795725  0.5749849115805077
  0.2966461438247094  0.3189392581750568  0.5699707434808161
  0.5638356619444380  0.3210329320728746  0.5714894588438071
  0.8167131494131468  0.3220642878013109  0.5587464281502079
  0.0710402808617658  0.5744900910286219  0.5615383789864836
  0.3038200204847143  0.5539644805006247  0.5649405195135557
  0.5686687213937844  0.5538998453995490  0.5706631251373580
  0.8218826451722165  0.5626264568768988  0.5614568164678460
  0.0624037359989131  0.8092953002606293  0.5591552589820239
  0.3080158212238899  0.8226336868435453  0.5539185051984532
  0.5519848845962798  0.8095427081638888  0.5722961398152933
  0.8008691569436905  0.8246245785463557  0.5510833411645635
  0.0613450040570882  0.0534694695583866  0.8089480917862772
  0.3111983261307714  0.0654489557140892  0.8147777841896229
  0.5662634327919349  0.0636926154531707  0.8158788126401575
  0.8150819365816631  0.0647577327409294  0.8086244703813250
  0.0651284785016628  0.3074141195420950  0.8165764387871235
  0.3113683520866246  0.3102452065110342  0.8214769134693540
  0.5593322050434963  0.3166909475333526  0.8109800321898817
  0.8055003488420027  0.3187169292920871  0.8182780493881125
  0.0623504173802871  0.5654961094765270  0.8109089047040214
  0.3140457545141899  0.5593112809320857  0.8113452978358282
  0.5609712027485756  0.5653201442268525  0.8014645535989118
  0.8125092751997940  0.5719514278819062  0.8041888956710892
  0.0688845879581805  0.8103669372767044  0.8145580586910839
  0.3102463919383851  0.8181493842215346  0.8152184655183987
  0.5549170827593883  0.8093195657491279  0.8215019147211891
  0.8170392818633232  0.8021405780979762  0.8210194370862851
 
  0.00000000E+00  0.00000000E+00  0.00000000E+00
  0.00000000E+00  0.00000000E+00  0.00000000E+00
  0.00000000E+00  0.00000000E+00  0.00000000E+00
  0.00000000E+00  0.00000000E+00  0.00000000E+00
  0.00000000E+00  0.00000000E+00  0.00000000E+00
  0.00000000E+00  0.00000000E+00  0.00000000E+00
  0.00000000E+00  0.00000000E+00  0.00000000E+00
  0.00000000E+00  0.00000000E+00  0.00000000E+00
  0.00000000E+00  0.00000000E+00  0.00000000E+00
  0.00000000E+00  0.00000000E+00  0.00000000E+00
  0.00000000E+00  0.00000000E+00  0.00000000E+00
  0.00000000E+00  0.00000000E+00  0.00000000E+00
  0.00000000E+00  0.00000000E+00  0.00000000E+00
  0.00000000E+00  0.00000000E+00  0.00000000E+00
  0.00000000E+00  0.00000000E+00  0.00000000E+00
  0.00000000E+00  0.00000000E+00  0.00000000E+00
  0.00000000E+00  0.00000000E+00  0.00000000E+00
  0.00000000E+00  0.00000000E+00  0.00000000E+00
  0.00000000E+00  0.00000000E+00  0.00000000E+00
  0.00000000E+00  0.00000000E+00  0.00000000E+00
  0.00000000E+00  0.00000000E+00  0.00000000E+00
  0.00000000E+00  0.00000000E+00  0.00000000E+00
  0.00000000E+00  0.00000000E+00  0.00000000E+00
  0.00000000E+00  0.00000000E+00  0.00000000E+00
  0.00000000E+00  0.00000000E+00  0.00000000E+00
  0.00000000E+00  0.00000000E+00  0.00000000E+00
  0.00000000E+00  0.00000000E+00  0.00000000E+00
  0.00000000E+00  0.00000000E+00  0.00000000E+00
  0.00000000E+00  0.00000000E+00  0.00000000E+00
  0.00000000E+00  0.00000000E+00  0.00000000E+00
  0.00000000E+00  0.00000000E+00  0.00000000E+00
  0.00000000E+00  0.00000000E+00  0.00000000E+00
  0.00000000E+00  0.00000000E+00  0.00000000E+00
  0.00000000E+00  0.00000000E+00  0.00000000E+00
  0.00000000E+00  0.00000000E+00  0.00000000E+00
  0.00000000E+00  0.00000000E+00  0.00000000E+00
  0.00000000E+00  0.00000000E+00  0.00000000E+00
  0.00000000E+00  0.00000000E+00  0.00000000E+00
  0.00000000E+00  0.00000000E+00  0.00000000E+00
  0.00000000E+00  0.00000000E+00  0.00000000E+00
  0.00000000E+00  0.00000000E+00  0.00000000E+00
  0.00000000E+00  0.00000000E+00  0.00000000E+00
  0.00000000E+00  0.00000000E+00  0.00000000E+00
  0.00000000E+00  0.00000000E+00  0.00000000E+00
  0.00000000E+00  0.00000000E+00  0.00000000E+00
  0.00000000E+00  0.00000000E+00  0.00000000E+00
  0.00000000E+00  0.00000000E+00  0.00000000E+00
  0.00000000E+00  0.00000000E+00  0.00000000E+00
  0.00000000E+00  0.00000000E+00  0.00000000E+00
  0.00000000E+00  0.00000000E+00  0.00000000E+00
  0.00000000E+00  0.00000000E+00  0.00000000E+00
  0.00000000E+00  0.00000000E+00  0.00000000E+00
  0.00000000E+00  0.00000000E+00  0.00000000E+00
  0.00000000E+00  0.00000000E+00  0.00000000E+00
  0.00000000E+00  0.00000000E+00  0.00000000E+00
  0.00000000E+00  0.00000000E+00  0.00000000E+00
  0.00000000E+00  0.00000000E+00  0.00000000E+00
  0.00000000E+00  0.00000000E+00  0.00000000E+00
  0.00000000E+00  0.00000000E+00  0.00000000E+00
  0.00000000E+00  0.00000000E+00  0.00000000E+00
  0.00000000E+00  0.00000000E+00  0.00000000E+00
  0.00000000E+00  0.00000000E+00  0.00000000E+00
  0.00000000E+00  0.00000000E+00  0.00000000E+00
  0.00000000E+00  0.00000000E+00  0.00000000E+00
  0.00000000E+00  0.00000000E+00  0.00000000E+00
  0.00000000E+00  0.00000000E+00  0.00000000E+00
  0.00000000E+00  0.00000000E+00  0.00000000E+00
  0.00000000E+00  0.00000000E+00  0.00000000E+00
  0.00000000E+00  0.00000000E+00  0.00000000E+00
  0.00000000E+00  0.00000000E+00  0.00000000E+00
  0.00000000E+00  0.00000000E+00  0.00000000E+00
  0.00000000E+00  0.00000000E+00  0.00000000E+00
  0.00000000E+00  0.00000000E+00  0.00000000E+00
  0.00000000E+00  0.00000000E+00  0.00000000E+00
  0.00000000E+00  0.00000000E+00  0.00000000E+00
  0.00000000E+00  0.00000000E+00  0.00000000E+00
  0.00000000E+00  0.00000000E+00  0.00000000E+00
  0.00000000E+00  0.00000000E+00  0.00000000E+00
  0.00000000E+00  0.00000000E+00  0.00000000E+00
  0.00000000E+00  0.00000000E+00  0.00000000E+00
  0.00000000E+00  0.00000000E+00  0.00000000E+00
  0.00000000E+00  0.00000000E+00  0.00000000E+00
  0.00000000E+00  0.00000000E+00  0.00000000E+00
  0.00000000E+00  0.00000000E+00  0.00000000E+00
  0.00000000E+00  0.00000000E+00  0.00000000E+00
  0.00000000E+00  0.00000000E+00  0.00000000E+00
  0.00000000E+00  0.00000000E+00  0.00000000E+00
  0.00000000E+00  0.00000000E+00  0.00000000E+00
  0.00000000E+00  0.00000000E+00  0.00000000E+00
  0.00000000E+00  0.00000000E+00  0.00000000E+00
  0.00000000E+00  0.00000000E+00  0.00000000E+00
  0.00000000E+00  0.00000000E+00  0.00000000E+00
  0.00000000E+00  0.00000000E+00  0.00000000E+00
  0.00000000E+00  0.00000000E+00  0.00000000E+00
  0.00000000E+00  0.00000000E+00  0.00000000E+00
  0.00000000E+00  0.00000000E+00  0.00000000E+00
  0.00000000E+00  0.00000000E+00  0.00000000E+00
  0.00000000E+00  0.00000000E+00  0.00000000E+00
  0.00000000E+00  0.00000000E+00  0.00000000E+00
  0.00000000E+00  0.00000000E+00  0.00000000E+00
  0.00000000E+00  0.00000000E+00  0.00000000E+00
  0.00000000E+00  0.00000000E+00  0.00000000E+00
  0.00000000E+00  0.00000000E+00  0.00000000E+00
  0.00000000E+00  0.00000000E+00  0.00000000E+00
  0.00000000E+00  0.00000000E+00  0.00000000E+00
  0.00000000E+00  0.00000000E+00  0.00000000E+00
  0.00000000E+00  0.00000000E+00  0.00000000E+00
  0.00000000E+00  0.00000000E+00  0.00000000E+00
  0.00000000E+00  0.00000000E+00  0.00000000E+00
  0.00000000E+00  0.00000000E+00  0.00000000E+00
  0.00000000E+00  0.00000000E+00  0.00000000E+00
  0.00000000E+00  0.00000000E+00  0.00000000E+00
  0.00000000E+00  0.00000000E+00  0.00000000E+00
  0.00000000E+00  0.00000000E+00  0.00000000E+00
  0.00000000E+00  0.00000000E+00  0.00000000E+00
  0.00000000E+00  0.00000000E+00  0.00000000E+00
  0.00000000E+00  0.00000000E+00  0.00000000E+00
  0.00000000E+00  0.00000000E+00  0.00000000E+00
  0.00000000E+00  0.00000000E+00  0.00000000E+00
  0.00000000E+00  0.00000000E+00  0.00000000E+00
  0.00000000E+00  0.00000000E+00  0.00000000E+00
  0.00000000E+00  0.00000000E+00  0.00000000E+00
  0.00000000E+00  0.00000000E+00  0.00000000E+00
  0.00000000E+00  0.00000000E+00  0.00000000E+00
  0.00000000E+00  0.00000000E+00  0.00000000E+00
  0.00000000E+00  0.00000000E+00  0.00000000E+00
  0.00000000E+00  0.00000000E+00  0.00000000E+00
  0.00000000E+00  0.00000000E+00  0.00000000E+00
