kk
 1.0000000000000000
     0.0000000000000000   10.9373336906932952   10.9373336906932952
    10.9373336906932952    0.0000000000000000   10.9373336906932952
    10.9373336906932952   10.9373336906932952    0.0000000000000000
 128
Direct
  0.9883416119813825  0.0007514401799767  0.0158516065866458
  0.2683465522888837  0.9920247586662636  0.0007325321506606
  0.4981774663941965  0.9960569860806049  0.9952919205046661
  0.7423193106694213  0.0077422756173402  0.0016511427277636
  0.9951672527161480  0.2551327714609677  0.9907442869019790
  0.2645340102760274  0.2430188696656758  0.9934917327756274
  0.4975206126773410  0.2487371541986958  0.0050334054426398
  0.7478826035233581  0.2454402941828954  0.0004566179390555
  0.0080284502723688  0.4962525150261797  0.0015493947613115
  0.2458154851372208  0.4978476374031339  0.0034459458498429
  0.4918867802599933  0.5081112998238807  0.0049905022384283
  0.7529322736063897  0.4955207414868312  0.0042794101964739
  0.9998550824324995  0.7443576667023848  0.0061098485537830
  0.2422072091159678  0.7469492100221637  0.9978859416076673
  0.4915309113518196  0.7483496529338911  0.0103138978705966
  0.7371509554481837  0.7549005875425615  0.0045926164226013
  0.0150382618564647  0.9916017030929080  0.2443467385753600
  0.2411555700804873  0.0095602517016296  0.2495310564391446
  0.5058146543020887  0.9996959013772020  0.2383586333011470
  0.7413587875361382  0.9955766846190365  0.2576453740624676
  0.9957169538962738  0.2468854183010462  0.2652053741685078
  0.2486964170578109  0.2611249213689266  0.2486365928201280
  0.4978174468525150  0.2527863764251531  0.2506126085486434
  0.7483949811765109  0.2512237816147979  0.2545173367984696
  0.9927462668360385  0.5098951277136980  0.2481112936492482
  0.2557654192669125  0.4871403663849576  0.2573164353232527
  0.4916197922245835  0.5015064513936044  0.2502324170137445
  0.7514205668931027  0.5010962081539631  0.2509331482240565
  0.0082116151148185  0.7504699552886603  0.2447433283177640
  0.2445449289608769  0.7478465126441334  0.2541293432729103
  0.5058211935281104  0.7427386992794955  0.2523302986872362
  0.7454440747014700  0.7518221398095147  0.2530334901875284
  0.9954451325829504  0.0090401066490210  0.4932608513460685
  0.2569302202416875  0.9995632241603192  0.4975103260263931
  0.4979196246211644  0.9989978863269765  0.5056679839362146
  0.7530223044459435  0.0035108210272028  0.5018599692642061
  0.9948377121391720  0.2417414292319863  0.5100868246373145
  0.2391630081285888  0.2550521920750930  0.5073710700925133
  0.5066022715853954  0.2397595801552912  0.5031059433247387
  0.7572450018667035  0.2372379982524148  0.4895217912870001
  0.9977275554313071  0.4872581754393226  0.5032771014514834
  0.2387117666181374  0.5038462004687926  0.4964983194563546
  0.5078371895310391  0.5093426190694735  0.5012773759320078
  0.7442364413469592  0.4993979935429003  0.5071776573005792
  0.9978414574295534  0.7492789842709893  0.5021126821224817
  0.2478627342992046  0.7506663485113304  0.4957673364150967
  0.5033009523650831  0.7550944787434248  0.4946389282353513
  0.7538511553720136  0.7506141909346415  0.4903546661459907
  0.9999044307472078  0.9914873069054391  0.7496847434308165
  0.2413266936468291  0.0066360168108919  0.7546448660746966
  0.5014836590045384  0.9970355869720757  0.7493250478618466
  0.7508828524602154  0.0039758733590615  0.7407676289656571
  0.9966086440909451  0.2353130016330344  0.7707317779405722
  0.2523364891942875  0.2510478160735367  0.7530609869646386
  0.4905332026800935  0.2476486090403004  0.7530291808531092
  0.7610923981071499  0.2433698202797339  0.7633902639004569
  0.9900923877421122  0.4977688771188835  0.7581929818681131
  0.2366140589536929  0.5057506451993721  0.7454717905410085
  0.4931324666388910  0.4985100320306312  0.7468829710849091
  0.7576225098567845  0.5015664546489379  0.7408717818027475
  0.9982249549263966  0.7500473845041681  0.7441211564546170
  0.2494743633389719  0.7577772441034596  0.7451621356558212
  0.5003868835454469  0.7455615191874206  0.7479063101144019
  0.7482060777364588  0.7485091286811076  0.7477778901275706
  0.0690476350229739  0.0588172911224282  0.0603312446183879
  0.3212459852433684  0.0490392690721627  0.0672453394759421
  0.5678307249572340  0.0550697594690416  0.0671578704417224
  0.8097975311755402  0.0607797982974435  0.0687001950638597
  0.0662060294598566  0.3116657756202603  0.0612827038635828
  0.3139688058684979  0.3123235817747985  0.0609983034100474
  0.5686209427504065  0.3200351853973152  0.0541214269097018
  0.8041947785145992  0.3270411090288415  0.0697689565317960
  0.0614602213256785  0.5551067648149463  0.0636630401363661
  0.3117982485317667  0.5573088436494867  0.0706078185890109
  0.5700593374998685  0.5725570661130092  0.0456955957894148
  0.8188850831152025  0.5612006743460681  0.0579487801994808
  0.0651586892591227  0.7983235947254264  0.0703862715369796
  0.3156179895866833  0.8080499668774195  0.0537103652826486
  0.5584030499798007  0.8067829788456808  0.0715048197602882
  0.8093894011382059  0.8268120510227043  0.0469208088991516
  0.0656600668440596  0.0573000005493479  0.3178517007408851
  0.3237141212306011  0.0601364001421747  0.3016258933384497
  0.5529570482996620  0.0693231817130947  0.3246324536849428
  0.7998945561672989  0.0734315831344295  0.3193852198934214
  0.0665490013775367  0.3150670897146606  0.3059336014842931
  0.3176642640231793  0.3048458318408516  0.3215756459441573
  0.5663367857494002  0.3180172127407884  0.3143741933958719
  0.8154737433186700  0.2986185617937495  0.3142901595115440
  0.0553566435067357  0.5659020102045903  0.3103618802572788
  0.3142572385268477  0.5525040832039185  0.3182750888767065
  0.5713444911945915  0.5566250331704675  0.3133360679141980
  0.8172900242766987  0.5570299891572832  0.3168399169858241
  0.0654146359218372  0.8186972380397994  0.3059327309308537
  0.2999166792654063  0.8109919148495903  0.3065134553471492
  0.5750392234540617  0.8163296173425617  0.3032464976298753
  0.8096058645374030  0.8216768597575814  0.3080945865857446
  0.0610378491427174  0.0626107843336403  0.5719359119308723
  0.3070338841689060  0.0612942253478682  0.5674282854882484
  0.5679895565843266  0.0687001026098908  0.5378089037982632
  0.8202062937162079  0.0612604705720089  0.5668333709018725
  0.0553137768738812  0.3043078268795695  0.5749849115805057
  0.2966461438247118  0.3189392581750579  0.5699707434808194
  0.5638356619444376  0.3210329320728717  0.5714894588438091
  0.8167131494131484  0.3220642878013102  0.5587464281502084
  0.0710402808617690  0.5744900910286234  0.5615383789864862
  0.3038200204847170  0.5539644805006251  0.5649405195135577
  0.5686687213937820  0.5538998453995485  0.5706631251373593
  0.8218826451722141  0.5626264568768994  0.5614568164678491
  0.0624037359989110  0.8092953002606267  0.5591552589820216
  0.3080158212238893  0.8226336868435461  0.5539185051984515
  0.5519848845962784  0.8095427081638897  0.5722961398152966
  0.8008691569436894  0.8246245785463561  0.5510833411645655
  0.0613450040570889  0.0534694695583868  0.8089480917862742
  0.3111983261307703  0.0654489557140925  0.8147777841896213
  0.5662634327919380  0.0636926154531720  0.8158788126401554
  0.8150819365816629  0.0647577327409312  0.8086244703813271
  0.0651284785016621  0.3074141195420937  0.8165764387871263
  0.3113683520866239  0.3102452065110372  0.8214769134693506
  0.5593322050434966  0.3166909475333546  0.8109800321898789
  0.8055003488420015  0.3187169292920836  0.8182780493881098
  0.0623504173802844  0.5654961094765282  0.8109089047040192
  0.3140457545141893  0.5593112809320878  0.8113452978358264
  0.5609712027485732  0.5653201442268542  0.8014645535989116
  0.8125092751997971  0.5719514278819078  0.8041888956710895
  0.0688845879581837  0.8103669372767032  0.8145580586910834
  0.3102463919383843  0.8181493842215338  0.8152184655183979
  0.5549170827593904  0.8093195657491271  0.8215019147211907
  0.8170392818633212  0.8021405780979732  0.8210194370862831
