kk                                      
   1.00000000000000     
     0.0000000000000000   10.9373336906932952   10.9373336906932952
    10.9373336906932952    0.0000000000000000   10.9373336906932952
    10.9373336906932952   10.9373336906932952    0.0000000000000000
   Si
   128
Direct
  0.9905663337658552  0.9954704283253548  0.0119223685357923
  0.2487219099936979  0.9909075335531980  0.0023420884709395
  0.5036322619985967  0.0023149523735810  0.0022763718744088
  0.7474716169711542  0.0110011650360633  0.0010113306819832
  0.9968659894085903  0.2425318304952171  0.0141298150001887
  0.2500498048493895  0.2444421406905661  0.9950102384164552
  0.5018380442901460  0.2466573383668020  0.9996952017290965
  0.7483384395384078  0.2497628892958019  0.9969183692164023
  0.9969498077750956  0.5066313492100889  0.9836015613763891
  0.2446082563355461  0.4990865108323632  0.0045510636234951
  0.4950177789949848  0.5058979146685871  0.9968568287286175
  0.7609763581908382  0.4945698805486529  0.0047322661403797
  0.0033214822473937  0.7447046915593134  0.0052515302525364
  0.2563779216485855  0.7567254655839193  0.9945842317199691
  0.4934963262252339  0.7438238290292389  0.0179053902606796
  0.7595116318450508  0.7489295773816949  0.9907910556394270
  0.9951523098570050  0.9927826115248948  0.2462746757857133
  0.2627991635080633  0.9981154503582630  0.2450163223852329
  0.4982523060515831  0.0073621558267121  0.2452722071759084
  0.7506707344015382  0.9927296231943430  0.2485544092405760
  0.0017428648348741  0.2544066129319162  0.2418616653475425
  0.2386145558535944  0.2535451179266985  0.2634551933110174
  0.5033165213014001  0.2464589736817473  0.2431611708205352
  0.7483960457715000  0.2475475835565533  0.2579666939114560
  0.0074201189514653  0.4980076153974551  0.2408753118184777
  0.2379304593516309  0.5018070155280228  0.2531224183339162
  0.4977092109892283  0.5053668413580041  0.2392930964439515
  0.7422768422791037  0.5003002070966147  0.2546886391172691
  0.0046950999044881  0.7473841253841158  0.2548748241686098
  0.2396719433681795  0.7528097307896573  0.2541891243574526
  0.4955119465943199  0.7454335213442391  0.2520279704083777
  0.7522890372001854  0.7449005115553007  0.2493772957497455
  0.9928693998899902  0.0016201491527070  0.5049703312448770
  0.2528233912463023  0.0043361460063238  0.5088780017361429
  0.4998921318344358  0.9982987136779471  0.4992527953608175
  0.7500913225378341  0.9983529892227736  0.5067504879284357
  0.0047298054055673  0.2496996902502246  0.5035073725367596
  0.2440774710788602  0.2449589146541484  0.5022019252417493
  0.5001749483168680  0.2400110994882496  0.5059560649934909
  0.7407727114374651  0.2625424529818829  0.4889319979282476
  0.9987776997762197  0.4882072551670689  0.5143275588389713
  0.2435830538949233  0.5126270994209250  0.4955860839765620
  0.4996806655634387  0.5091320471833853  0.4969258286927669
  0.7427596737979698  0.4939917230255091  0.5007723986446635
  0.9974288230892370  0.7658092346232905  0.4934815168607258
  0.2538500424484909  0.7433344280973913  0.5028336622412581
  0.4982026425122470  0.7456860202969651  0.5051362430964446
  0.7536545543172224  0.7548190137275483  0.4973036076652306
  0.9974583758260138  0.0153911513244935  0.7353199584766870
  0.2396187682582465  0.0141893090802370  0.7517626986983643
  0.4997364032881180  0.0143803717677926  0.7379562945497042
  0.7374172756326445  0.0060083320187232  0.7487389752626399
  0.0102730120798284  0.2453984224205925  0.7494179731913917
  0.2580180334867492  0.2539011296525757  0.7469759189551795
  0.5030992937697931  0.2522488657628372  0.7490704387123159
  0.7423047591336527  0.2407376532566801  0.7591647956416949
  0.9943443036820554  0.4989590858055308  0.7557988843458503
  0.2509281575082554  0.5000154983511393  0.7396825054286751
  0.5007458988900737  0.4911036308647567  0.7491802698787211
  0.7439856410186678  0.4939255908516458  0.7483723032119158
  0.0004917131658146  0.7466174078339591  0.7481836267716488
  0.2424367489527626  0.7337168757979313  0.7584004809145455
  0.5016726908790829  0.7493921188669219  0.7426020885800213
  0.7552690256794392  0.7411101881731526  0.7476971933416436
  0.0552525020560708  0.0614819232062871  0.0635941080130280
  0.3074626069429556  0.0607883662002209  0.0573065407943787
  0.5584596244915048  0.0682372278117995  0.0601931332421728
  0.8216385613005954  0.0750797147574076  0.0457767281161949
  0.0547596509601789  0.3202726626027754  0.0565828749164936
  0.2957570678456420  0.3142922086745301  0.0733461183921875
  0.5613223025083514  0.3197576651891652  0.0608798974311568
  0.8130788723515110  0.3136752399426683  0.0647840567226012
  0.0676890846085811  0.5530022843874676  0.0649501747747863
  0.3152817694133319  0.5475198671218422  0.0612113406052757
  0.5701704095404168  0.5681714538405132  0.0525367548621816
  0.8228061786569896  0.5669186342120227  0.0677797195063690
  0.0697081874469561  0.8185852981843311  0.0594662571686158
  0.3127215306492559  0.8125093029279995  0.0681334970350633
  0.5736790198468356  0.8045107088933108  0.0713212589885046
  0.8024822657393855  0.8052974202911329  0.0698631524229825
  0.0509674953677219  0.0699211884844857  0.3122596776903421
  0.3011262399718149  0.0693413256804902  0.3140975218310160
  0.5544199306988347  0.0601214029182273  0.3246821593515676
  0.8013897182453249  0.0764938889973052  0.3075620399401373
  0.0618779945915477  0.3120248134407149  0.3154849118980181
  0.3115700612211540  0.3021698966375723  0.3228491773851658
  0.5694621376734048  0.3121015624333836  0.2998315634253288
  0.8040404267932217  0.3209303093308478  0.3142742139903660
  0.0437740600163607  0.5674158899218753  0.3201415957290621
  0.3115085929191252  0.5646989427107698  0.3129081883111908
  0.5600925433528019  0.5570047655098520  0.3142343481004914
  0.8054641997699221  0.5638863125067815  0.3171195118119314
  0.0579281574016477  0.8147649551878686  0.3152939477552863
  0.3139805071862227  0.8146712520439010  0.3049912497291842
  0.5604101190084663  0.8101103794565176  0.3063598275852328
  0.8276847985456968  0.8124328098190645  0.3031954304066744
  0.0699356870314745  0.0629168465260790  0.5511047724531721
  0.3222980200010923  0.0527606294264302  0.5642418644129705
  0.5476703269975118  0.0582222513068800  0.5678147691240483
  0.8153375556824329  0.0540063979027181  0.5658857054450408
  0.0657319826628111  0.3094941455976752  0.5645952194747110
  0.3076077419929675  0.3144996142872785  0.5620662117613691
  0.5700432998438671  0.3119569066559649  0.5563741478146511
  0.8144275271946881  0.3200280402936997  0.5553722978150404
  0.0583477218021287  0.5678785871932277  0.5611283420385860
  0.3114865900453623  0.5578325766837509  0.5602031113504253
  0.5563761776122931  0.5712243570641533  0.5592808417832202
  0.8258509182694311  0.5644931709372898  0.5541119823890668
  0.0702886547902040  0.7891049410571966  0.5726181343924353
  0.3194907070383195  0.8125156271762322  0.5562632274931616
  0.5596734443299098  0.8147314986184355  0.5679276529580761
  0.8163144199979158  0.8180128307826635  0.5663745462676317
  0.0603881814746074  0.0607313568054551  0.8226146271719230
  0.3049107548967243  0.0543323031901508  0.8266663184792193
  0.5509078194297743  0.0650906201316133  0.8163645533683450
  0.8154241421344679  0.0600112923487686  0.7970171309442122
  0.0592051345272537  0.3075992145757382  0.8162991083670335
  0.3144187250956350  0.3142322279556637  0.8144944869005784
  0.5627544827043423  0.3224257851240608  0.8146431378204184
  0.8155126054299657  0.3112742419966423  0.8100798572607673
  0.0533134257538066  0.5711043796284656  0.8037991867357732
  0.3062467180427433  0.5532917277104090  0.8202686169130402
  0.5669270755528473  0.5655182010106188  0.8046601935339837
  0.8032074413169994  0.5598184925213587  0.8217996570694837
  0.0601483799253586  0.8115569041139565  0.8049321267842870
  0.2970856570639668  0.8278750569912745  0.8186022720264248
  0.5593345880172507  0.8178806564934007  0.8115182013873508
  0.8011479735324087  0.8237171962684471  0.8112606830746216
 
  0.00000000E+00  0.00000000E+00  0.00000000E+00
  0.00000000E+00  0.00000000E+00  0.00000000E+00
  0.00000000E+00  0.00000000E+00  0.00000000E+00
  0.00000000E+00  0.00000000E+00  0.00000000E+00
  0.00000000E+00  0.00000000E+00  0.00000000E+00
  0.00000000E+00  0.00000000E+00  0.00000000E+00
  0.00000000E+00  0.00000000E+00  0.00000000E+00
  0.00000000E+00  0.00000000E+00  0.00000000E+00
  0.00000000E+00  0.00000000E+00  0.00000000E+00
  0.00000000E+00  0.00000000E+00  0.00000000E+00
  0.00000000E+00  0.00000000E+00  0.00000000E+00
  0.00000000E+00  0.00000000E+00  0.00000000E+00
  0.00000000E+00  0.00000000E+00  0.00000000E+00
  0.00000000E+00  0.00000000E+00  0.00000000E+00
  0.00000000E+00  0.00000000E+00  0.00000000E+00
  0.00000000E+00  0.00000000E+00  0.00000000E+00
  0.00000000E+00  0.00000000E+00  0.00000000E+00
  0.00000000E+00  0.00000000E+00  0.00000000E+00
  0.00000000E+00  0.00000000E+00  0.00000000E+00
  0.00000000E+00  0.00000000E+00  0.00000000E+00
  0.00000000E+00  0.00000000E+00  0.00000000E+00
  0.00000000E+00  0.00000000E+00  0.00000000E+00
  0.00000000E+00  0.00000000E+00  0.00000000E+00
  0.00000000E+00  0.00000000E+00  0.00000000E+00
  0.00000000E+00  0.00000000E+00  0.00000000E+00
  0.00000000E+00  0.00000000E+00  0.00000000E+00
  0.00000000E+00  0.00000000E+00  0.00000000E+00
  0.00000000E+00  0.00000000E+00  0.00000000E+00
  0.00000000E+00  0.00000000E+00  0.00000000E+00
  0.00000000E+00  0.00000000E+00  0.00000000E+00
  0.00000000E+00  0.00000000E+00  0.00000000E+00
  0.00000000E+00  0.00000000E+00  0.00000000E+00
  0.00000000E+00  0.00000000E+00  0.00000000E+00
  0.00000000E+00  0.00000000E+00  0.00000000E+00
  0.00000000E+00  0.00000000E+00  0.00000000E+00
  0.00000000E+00  0.00000000E+00  0.00000000E+00
  0.00000000E+00  0.00000000E+00  0.00000000E+00
  0.00000000E+00  0.00000000E+00  0.00000000E+00
  0.00000000E+00  0.00000000E+00  0.00000000E+00
  0.00000000E+00  0.00000000E+00  0.00000000E+00
  0.00000000E+00  0.00000000E+00  0.00000000E+00
  0.00000000E+00  0.00000000E+00  0.00000000E+00
  0.00000000E+00  0.00000000E+00  0.00000000E+00
  0.00000000E+00  0.00000000E+00  0.00000000E+00
  0.00000000E+00  0.00000000E+00  0.00000000E+00
  0.00000000E+00  0.00000000E+00  0.00000000E+00
  0.00000000E+00  0.00000000E+00  0.00000000E+00
  0.00000000E+00  0.00000000E+00  0.00000000E+00
  0.00000000E+00  0.00000000E+00  0.00000000E+00
  0.00000000E+00  0.00000000E+00  0.00000000E+00
  0.00000000E+00  0.00000000E+00  0.00000000E+00
  0.00000000E+00  0.00000000E+00  0.00000000E+00
  0.00000000E+00  0.00000000E+00  0.00000000E+00
  0.00000000E+00  0.00000000E+00  0.00000000E+00
  0.00000000E+00  0.00000000E+00  0.00000000E+00
  0.00000000E+00  0.00000000E+00  0.00000000E+00
  0.00000000E+00  0.00000000E+00  0.00000000E+00
  0.00000000E+00  0.00000000E+00  0.00000000E+00
  0.00000000E+00  0.00000000E+00  0.00000000E+00
  0.00000000E+00  0.00000000E+00  0.00000000E+00
  0.00000000E+00  0.00000000E+00  0.00000000E+00
  0.00000000E+00  0.00000000E+00  0.00000000E+00
  0.00000000E+00  0.00000000E+00  0.00000000E+00
  0.00000000E+00  0.00000000E+00  0.00000000E+00
  0.00000000E+00  0.00000000E+00  0.00000000E+00
  0.00000000E+00  0.00000000E+00  0.00000000E+00
  0.00000000E+00  0.00000000E+00  0.00000000E+00
  0.00000000E+00  0.00000000E+00  0.00000000E+00
  0.00000000E+00  0.00000000E+00  0.00000000E+00
  0.00000000E+00  0.00000000E+00  0.00000000E+00
  0.00000000E+00  0.00000000E+00  0.00000000E+00
  0.00000000E+00  0.00000000E+00  0.00000000E+00
  0.00000000E+00  0.00000000E+00  0.00000000E+00
  0.00000000E+00  0.00000000E+00  0.00000000E+00
  0.00000000E+00  0.00000000E+00  0.00000000E+00
  0.00000000E+00  0.00000000E+00  0.00000000E+00
  0.00000000E+00  0.00000000E+00  0.00000000E+00
  0.00000000E+00  0.00000000E+00  0.00000000E+00
  0.00000000E+00  0.00000000E+00  0.00000000E+00
  0.00000000E+00  0.00000000E+00  0.00000000E+00
  0.00000000E+00  0.00000000E+00  0.00000000E+00
  0.00000000E+00  0.00000000E+00  0.00000000E+00
  0.00000000E+00  0.00000000E+00  0.00000000E+00
  0.00000000E+00  0.00000000E+00  0.00000000E+00
  0.00000000E+00  0.00000000E+00  0.00000000E+00
  0.00000000E+00  0.00000000E+00  0.00000000E+00
  0.00000000E+00  0.00000000E+00  0.00000000E+00
  0.00000000E+00  0.00000000E+00  0.00000000E+00
  0.00000000E+00  0.00000000E+00  0.00000000E+00
  0.00000000E+00  0.00000000E+00  0.00000000E+00
  0.00000000E+00  0.00000000E+00  0.00000000E+00
  0.00000000E+00  0.00000000E+00  0.00000000E+00
  0.00000000E+00  0.00000000E+00  0.00000000E+00
  0.00000000E+00  0.00000000E+00  0.00000000E+00
  0.00000000E+00  0.00000000E+00  0.00000000E+00
  0.00000000E+00  0.00000000E+00  0.00000000E+00
  0.00000000E+00  0.00000000E+00  0.00000000E+00
  0.00000000E+00  0.00000000E+00  0.00000000E+00
  0.00000000E+00  0.00000000E+00  0.00000000E+00
  0.00000000E+00  0.00000000E+00  0.00000000E+00
  0.00000000E+00  0.00000000E+00  0.00000000E+00
  0.00000000E+00  0.00000000E+00  0.00000000E+00
  0.00000000E+00  0.00000000E+00  0.00000000E+00
  0.00000000E+00  0.00000000E+00  0.00000000E+00
  0.00000000E+00  0.00000000E+00  0.00000000E+00
  0.00000000E+00  0.00000000E+00  0.00000000E+00
  0.00000000E+00  0.00000000E+00  0.00000000E+00
  0.00000000E+00  0.00000000E+00  0.00000000E+00
  0.00000000E+00  0.00000000E+00  0.00000000E+00
  0.00000000E+00  0.00000000E+00  0.00000000E+00
  0.00000000E+00  0.00000000E+00  0.00000000E+00
  0.00000000E+00  0.00000000E+00  0.00000000E+00
  0.00000000E+00  0.00000000E+00  0.00000000E+00
  0.00000000E+00  0.00000000E+00  0.00000000E+00
  0.00000000E+00  0.00000000E+00  0.00000000E+00
  0.00000000E+00  0.00000000E+00  0.00000000E+00
  0.00000000E+00  0.00000000E+00  0.00000000E+00
  0.00000000E+00  0.00000000E+00  0.00000000E+00
  0.00000000E+00  0.00000000E+00  0.00000000E+00
  0.00000000E+00  0.00000000E+00  0.00000000E+00
  0.00000000E+00  0.00000000E+00  0.00000000E+00
  0.00000000E+00  0.00000000E+00  0.00000000E+00
  0.00000000E+00  0.00000000E+00  0.00000000E+00
  0.00000000E+00  0.00000000E+00  0.00000000E+00
  0.00000000E+00  0.00000000E+00  0.00000000E+00
  0.00000000E+00  0.00000000E+00  0.00000000E+00
  0.00000000E+00  0.00000000E+00  0.00000000E+00
  0.00000000E+00  0.00000000E+00  0.00000000E+00
