kk
 1.0000000000000000
     0.0000000000000000   10.9373336906932952   10.9373336906932952
    10.9373336906932952    0.0000000000000000   10.9373336906932952
    10.9373336906932952   10.9373336906932952    0.0000000000000000
 128
Direct
  0.9905663337658536  0.9954704283253524  0.0119223685357910
  0.2487219099936996  0.9909075335531953  0.0023420884709360
  0.5036322619985972  0.0023149523735837  0.0022763718744085
  0.7474716169711507  0.0110011650360622  0.0010113306819865
  0.9968659894085934  0.2425318304952160  0.0141298150001882
  0.2500498048493922  0.2444421406905659  0.9950102384164536
  0.5018380442901490  0.2466573383668025  0.9996952017290959
  0.7483384395384103  0.2497628892958009  0.9969183692164010
  0.9969498077750968  0.5066313492100913  0.9836015613763913
  0.2446082563355438  0.4990865108323647  0.0045510636234940
  0.4950177789949841  0.5058979146685902  0.9968568287286179
  0.7609763581908365  0.4945698805486551  0.0047322661403794
  0.0033214822473920  0.7447046915593132  0.0052515302525391
  0.2563779216485889  0.7567254655839172  0.9945842317199666
  0.4934963262252327  0.7438238290292383  0.0179053902606775
  0.7595116318450493  0.7489295773816933  0.9907910556394273
  0.9951523098570030  0.9927826115248954  0.2462746757857122
  0.2627991635080599  0.9981154503582634  0.2450163223852298
  0.4982523060515803  0.0073621558267144  0.2452722071759106
  0.7506707344015373  0.9927296231943407  0.2485544092405745
  0.0017428648348750  0.2544066129319132  0.2418616653475447
  0.2386145558535958  0.2535451179266984  0.2634551933110195
  0.5033165213014017  0.2464589736817442  0.2431611708205327
  0.7483960457714964  0.2475475835565561  0.2579666939114539
  0.0074201189514649  0.4980076153974561  0.2408753118184794
  0.2379304593516320  0.5018070155280249  0.2531224183339168
  0.4977092109892289  0.5053668413580042  0.2392930964439531
  0.7422768422791021  0.5003002070966125  0.2546886391172714
  0.0046950999044902  0.7473841253841166  0.2548748241686079
  0.2396719433681790  0.7528097307896570  0.2541891243574509
  0.4955119465943219  0.7454335213442388  0.2520279704083745
  0.7522890372001882  0.7449005115552988  0.2493772957497423
  0.9928693998899888  0.0016201491527073  0.5049703312448796
  0.2528233912463053  0.0043361460063261  0.5088780017361404
  0.4998921318344331  0.9982987136779478  0.4992527953608196
  0.7500913225378335  0.9983529892227722  0.5067504879284376
  0.0047298054055678  0.2496996902502272  0.5035073725367600
  0.2440774710788622  0.2449589146541484  0.5022019252417511
  0.5001749483168649  0.2400110994882527  0.5059560649934911
  0.7407727114374628  0.2625424529818801  0.4889319979282450
  0.9987776997762209  0.4882072551670703  0.5143275588389692
  0.2435830538949207  0.5126270994209270  0.4955860839765620
  0.4996806655634414  0.5091320471833881  0.4969258286927669
  0.7427596737979717  0.4939917230255085  0.5007723986446607
  0.9974288230892382  0.7658092346232919  0.4934815168607224
  0.2538500424484901  0.7433344280973901  0.5028336622412567
  0.4982026425122479  0.7456860202969655  0.5051362430964439
  0.7536545543172224  0.7548190137275468  0.4973036076652340
  0.9974583758260113  0.0153911513244900  0.7353199584766836
  0.2396187682582486  0.0141893090802371  0.7517626986983671
  0.4997364032881147  0.0143803717677947  0.7379562945497045
  0.7374172756326475  0.0060083320187250  0.7487389752626400
  0.0102730120798309  0.2453984224205913  0.7494179731913949
  0.2580180334867512  0.2539011296525754  0.7469759189551829
  0.5030992937697928  0.2522488657628383  0.7490704387123125
  0.7423047591336529  0.2407376532566780  0.7591647956416979
  0.9943443036820522  0.4989590858055333  0.7557988843458469
  0.2509281575082564  0.5000154983511376  0.7396825054286738
  0.5007458988900731  0.4911036308647560  0.7491802698787247
  0.7439856410186650  0.4939255908516487  0.7483723032119188
  0.0004917131658124  0.7466174078339586  0.7481836267716516
  0.2424367489527609  0.7337168757979283  0.7584004809145447
  0.5016726908790815  0.7493921188669190  0.7426020885800199
  0.7552690256794372  0.7411101881731550  0.7476971933416442
  0.0552525020560721  0.0614819232062896  0.0635941080130260
  0.3074626069429534  0.0607883662002214  0.0573065407943791
  0.5584596244915027  0.0682372278117981  0.0601931332421721
  0.8216385613005942  0.0750797147574088  0.0457767281161931
  0.0547596509601804  0.3202726626027790  0.0565828749164930
  0.2957570678456454  0.3142922086745280  0.0733461183921860
  0.5613223025083498  0.3197576651891675  0.0608798974311560
  0.8130788723515138  0.3136752399426715  0.0647840567226007
  0.0676890846085802  0.5530022843874661  0.0649501747747847
  0.3152817694133294  0.5475198671218434  0.0612113406052771
  0.5701704095404171  0.5681714538405129  0.0525367548621790
  0.8228061786569867  0.5669186342120212  0.0677797195063718
  0.0697081874469539  0.8185852981843305  0.0594662571686125
  0.3127215306492537  0.8125093029279994  0.0681334970350613
  0.5736790198468384  0.8045107088933123  0.0713212589885013
  0.8024822657393875  0.8052974202911309  0.0698631524229843
  0.0509674953677212  0.0699211884844829  0.3122596776903406
  0.3011262399718153  0.0693413256804924  0.3140975218310165
  0.5544199306988356  0.0601214029182279  0.3246821593515696
  0.8013897182453275  0.0764938889973070  0.3075620399401372
  0.0618779945915460  0.3120248134407164  0.3154849118980179
  0.3115700612211532  0.3021698966375689  0.3228491773851640
  0.5694621376734035  0.3121015624333861  0.2998315634253253
  0.8040404267932245  0.3209303093308498  0.3142742139903657
  0.0437740600163600  0.5674158899218740  0.3201415957290621
  0.3115085929191273  0.5646989427107703  0.3129081883111933
  0.5600925433528003  0.5570047655098529  0.3142343481004894
  0.8054641997699227  0.5638863125067807  0.3171195118119289
  0.0579281574016458  0.8147649551878666  0.3152939477552883
  0.3139805071862238  0.8146712520439016  0.3049912497291842
  0.5604101190084678  0.8101103794565183  0.3063598275852320
  0.8276847985456987  0.8124328098190646  0.3031954304066757
  0.0699356870314747  0.0629168465260797  0.5511047724531686
  0.3222980200010925  0.0527606294264278  0.5642418644129710
  0.5476703269975084  0.0582222513068803  0.5678147691240499
  0.8153375556824297  0.0540063979027167  0.5658857054450438
  0.0657319826628091  0.3094941455976747  0.5645952194747127
  0.3076077419929683  0.3144996142872766  0.5620662117613701
  0.5700432998438678  0.3119569066559671  0.5563741478146513
  0.8144275271946905  0.3200280402937020  0.5553722978150384
  0.0583477218021260  0.5678785871932271  0.5611283420385873
  0.3114865900453626  0.5578325766837537  0.5602031113504219
  0.5563761776122956  0.5712243570641553  0.5592808417832229
  0.8258509182694337  0.5644931709372917  0.5541119823890679
  0.0702886547902059  0.7891049410571966  0.5726181343924347
  0.3194907070383176  0.8125156271762340  0.5562632274931650
  0.5596734443299094  0.8147314986184344  0.5679276529580758
  0.8163144199979192  0.8180128307826622  0.5663745462676300
  0.0603881814746065  0.0607313568054521  0.8226146271719216
  0.3049107548967258  0.0543323031901506  0.8266663184792181
  0.5509078194297740  0.0650906201316117  0.8163645533683468
  0.8154241421344680  0.0600112923487693  0.7970171309442093
  0.0592051345272557  0.3075992145757368  0.8162991083670351
  0.3144187250956379  0.3142322279556627  0.8144944869005762
  0.5627544827043406  0.3224257851240578  0.8146431378204166
  0.8155126054299632  0.3112742419966458  0.8100798572607705
  0.0533134257538071  0.5711043796284679  0.8037991867357761
  0.3062467180427407  0.5532917277104090  0.8202686169130404
  0.5669270755528488  0.5655182010106160  0.8046601935339830
  0.8032074413169983  0.5598184925213593  0.8217996570694841
  0.0601483799253605  0.8115569041139553  0.8049321267842862
  0.2970856570639669  0.8278750569912713  0.8186022720264234
  0.5593345880172494  0.8178806564934021  0.8115182013873478
  0.8011479735324092  0.8237171962684497  0.8112606830746243
